%%MatrixMarket matrix coordinate real general
%
600 600 3600
1 134 1
1 231 1
1 323 1
1 481 1
2 24 1
2 37 1
2 101 1
2 174 1
2 417 1
3 4 1
3 323 1
3 324 1
4 67 1
4 364 1
5 223 1
5 227 1
5 243 1
5 382 1
5 544 1
5 594 1
6 356 1
7 74 1
7 111 1
7 176 1
7 211 1
7 212 1
8 204 1
8 327 1
8 394 1
8 555 1
8 587 1
9 173 1
9 332 1
9 408 1
9 426 1
9 433 1
9 461 1
9 540 1
10 74 1
10 136 1
10 327 1
10 407 1
10 522 1
11 39 1
11 40 1
11 60 1
11 69 1
11 130 1
11 450 1
11 466 1
11 473 1
11 480 1
12 11 1
12 74 1
12 131 1
12 181 1
12 261 1
13 2 1
13 97 1
13 146 1
13 237 1
13 251 1
13 320 1
13 357 1
13 389 1
13 512 1
14 64 1
14 116 1
14 151 1
14 237 1
14 274 1
14 504 1
14 525 1
14 533 1
14 579 1
15 72 1
15 85 1
15 104 1
15 137 1
15 389 1
15 438 1
15 474 1
15 499 1
16 78 1
16 104 1
16 114 1
16 122 1
16 141 1
16 326 1
16 400 1
16 515 1
16 595 1
17 58 1
17 106 1
17 124 1
17 156 1
17 204 1
17 225 1
17 385 1
18 78 1
18 205 1
18 240 1
18 340 1
18 512 1
18 534 1
18 561 1
18 596 1
19 268 1
19 284 1
19 362 1
19 376 1
19 419 1
19 431 1
19 524 1
20 548 1
21 279 1
21 552 1
21 578 1
22 73 1
22 94 1
22 130 1
22 235 1
22 287 1
22 297 1
22 377 1
22 417 1
23 22 1
23 80 1
23 164 1
23 349 1
23 409 1
24 27 1
24 117 1
24 309 1
24 317 1
24 326 1
24 600 1
25 109 1
25 136 1
25 161 1
25 323 1
25 597 1
26 81 1
26 154 1
26 174 1
26 252 1
26 308 1
26 315 1
26 372 1
26 555 1
26 585 1
26 590 1
27 69 1
27 198 1
27 280 1
27 311 1
28 87 1
28 300 1
28 438 1
28 597 1
29 149 1
29 158 1
29 364 1
29 369 1
29 450 1
29 583 1
30 9 1
30 38 1
30 214 1
30 323 1
31 22 1
31 166 1
31 171 1
31 182 1
31 216 1
31 309 1
31 476 1
31 516 1
32 98 1
32 106 1
32 273 1
32 289 1
32 477 1
32 598 1
33 54 1
33 71 1
33 76 1
33 170 1
33 212 1
33 275 1
33 390 1
33 396 1
33 591 1
34 82 1
34 117 1
34 162 1
34 167 1
34 583 1
35 22 1
35 93 1
35 112 1
35 149 1
35 328 1
35 483 1
35 495 1
35 498 1
36 21 1
36 56 1
36 93 1
36 261 1
36 296 1
36 355 1
36 442 1
36 549 1
36 562 1
37 28 1
37 285 1
37 389 1
37 437 1
37 483 1
38 153 1
38 262 1
38 353 1
38 499 1
38 522 1
39 30 1
39 234 1
39 356 1
39 436 1
40 69 1
40 195 1
40 213 1
40 306 1
40 468 1
40 521 1
40 598 1
41 8 1
41 86 1
41 155 1
41 180 1
41 185 1
41 255 1
41 437 1
41 566 1
42 93 1
42 480 1
42 547 1
43 159 1
43 320 1
43 355 1
43 458 1
43 465 1
44 71 1
44 153 1
44 305 1
44 330 1
44 433 1
44 492 1
44 496 1
45 206 1
45 389 1
45 524 1
46 18 1
46 59 1
46 115 1
46 117 1
46 161 1
46 164 1
46 197 1
46 469 1
46 498 1
46 580 1
47 88 1
47 151 1
47 255 1
47 278 1
47 330 1
47 566 1
48 88 1
48 140 1
48 243 1
48 362 1
48 440 1
48 587 1
49 11 1
49 111 1
49 144 1
49 159 1
49 171 1
49 302 1
49 402 1
49 555 1
50 5 1
50 72 1
50 420 1
50 465 1
50 559 1
51 129 1
51 147 1
51 268 1
51 269 1
51 475 1
52 527 1
53 109 1
53 113 1
53 274 1
53 296 1
53 359 1
53 497 1
53 557 1
54 109 1
54 122 1
54 255 1
54 321 1
54 335 1
54 340 1
55 1 1
55 69 1
55 184 1
55 349 1
55 401 1
55 520 1
56 83 1
56 160 1
56 186 1
56 342 1
56 429 1
57 79 1
57 253 1
57 594 1
58 91 1
58 92 1
58 124 1
58 144 1
58 145 1
58 232 1
58 262 1
58 274 1
58 280 1
58 375 1
58 401 1
58 426 1
58 434 1
59 38 1
59 138 1
59 203 1
59 245 1
59 530 1
59 585 1
60 55 1
60 169 1
60 255 1
60 320 1
60 321 1
60 351 1
60 494 1
60 552 1
60 557 1
62 149 1
62 153 1
62 217 1
62 224 1
62 380 1
62 403 1
62 434 1
63 143 1
63 163 1
63 260 1
63 358 1
63 509 1
64 93 1
64 97 1
64 105 1
64 193 1
64 380 1
64 428 1
64 468 1
64 476 1
64 479 1
65 61 1
65 130 1
65 279 1
65 394 1
66 48 1
66 81 1
66 95 1
66 148 1
66 165 1
66 199 1
66 382 1
66 405 1
66 480 1
66 545 1
67 171 1
67 201 1
67 254 1
68 102 1
68 132 1
68 156 1
68 332 1
68 551 1
69 150 1
69 577 1
70 109 1
70 145 1
70 173 1
70 212 1
70 265 1
70 307 1
70 344 1
71 24 1
71 65 1
71 74 1
71 147 1
71 161 1
71 362 1
71 433 1
71 590 1
72 40 1
72 55 1
72 177 1
72 309 1
72 501 1
72 508 1
73 23 1
73 137 1
73 164 1
73 179 1
73 396 1
73 484 1
74 187 1
74 361 1
74 583 1
75 210 1
75 241 1
75 248 1
75 471 1
75 551 1
76 198 1
76 217 1
76 498 1
76 548 1
76 572 1
77 290 1
77 329 1
77 409 1
77 528 1
78 4 1
78 34 1
78 200 1
78 466 1
78 475 1
78 581 1
79 210 1
79 309 1
79 336 1
79 420 1
79 426 1
80 152 1
80 174 1
80 273 1
80 387 1
80 400 1
80 575 1
81 179 1
81 250 1
81 311 1
81 362 1
82 103 1
82 132 1
82 330 1
82 334 1
83 135 1
83 186 1
83 282 1
83 432 1
83 436 1
83 555 1
84 164 1
84 277 1
84 363 1
84 393 1
84 420 1
84 481 1
84 576 1
85 7 1
85 107 1
85 174 1
85 197 1
85 227 1
85 261 1
85 295 1
85 325 1
85 326 1
85 511 1
85 552 1
86 35 1
86 46 1
86 54 1
86 367 1
86 407 1
86 431 1
86 489 1
86 496 1
87 130 1
87 292 1
87 375 1
87 385 1
87 525 1
88 1 1
88 246 1
88 415 1
89 45 1
89 424 1
89 454 1
89 542 1
90 196 1
90 448 1
91 54 1
91 145 1
91 185 1
91 212 1
91 386 1
91 501 1
91 505 1
91 552 1
91 556 1
92 41 1
92 48 1
92 80 1
92 176 1
92 177 1
92 230 1
92 572 1
93 130 1
93 213 1
93 216 1
93 300 1
93 473 1
93 497 1
93 538 1
94 141 1
94 384 1
94 449 1
94 481 1
94 482 1
94 566 1
95 29 1
95 261 1
95 281 1
95 313 1
95 338 1
96 118 1
96 549 1
97 322 1
97 393 1
97 518 1
98 187 1
98 233 1
98 425 1
98 426 1
99 83 1
99 184 1
99 197 1
99 275 1
99 286 1
99 366 1
99 439 1
99 549 1
99 554 1
100 133 1
100 150 1
100 275 1
100 410 1
101 96 1
101 101 1
101 256 1
101 268 1
101 401 1
102 34 1
102 177 1
102 300 1
102 456 1
103 18 1
103 89 1
103 128 1
103 140 1
103 164 1
103 348 1
103 485 1
103 491 1
103 544 1
104 248 1
104 334 1
105 22 1
105 101 1
105 259 1
105 268 1
105 394 1
105 441 1
106 132 1
106 134 1
106 223 1
106 243 1
106 251 1
106 328 1
106 357 1
106 363 1
106 377 1
106 440 1
106 444 1
106 542 1
107 23 1
107 55 1
107 422 1
107 562 1
108 22 1
108 272 1
108 516 1
108 548 1
109 38 1
109 222 1
109 275 1
109 388 1
109 458 1
109 548 1
110 15 1
110 83 1
110 99 1
110 121 1
110 261 1
110 274 1
110 312 1
110 348 1
110 363 1
110 546 1
111 65 1
111 117 1
111 119 1
111 134 1
111 201 1
111 241 1
111 384 1
112 38 1
112 266 1
112 335 1
113 57 1
113 79 1
113 125 1
113 160 1
113 239 1
113 337 1
113 523 1
114 116 1
114 139 1
114 208 1
114 237 1
114 270 1
114 299 1
114 485 1
114 556 1
115 4 1
115 185 1
115 210 1
115 218 1
115 478 1
116 15 1
116 120 1
116 206 1
116 219 1
116 286 1
116 333 1
116 402 1
116 538 1
117 147 1
117 456 1
117 507 1
118 1 1
118 92 1
118 114 1
118 207 1
118 216 1
118 318 1
118 336 1
119 10 1
119 249 1
119 266 1
119 307 1
119 372 1
119 418 1
119 451 1
120 28 1
120 65 1
120 84 1
120 226 1
120 297 1
120 320 1
120 337 1
120 439 1
120 573 1
121 24 1
121 54 1
121 98 1
121 108 1
121 175 1
121 302 1
121 390 1
121 411 1
121 438 1
122 18 1
122 428 1
122 588 1
123 5 1
123 99 1
123 149 1
123 187 1
123 341 1
123 342 1
123 465 1
123 543 1
124 65 1
124 93 1
124 136 1
124 256 1
124 285 1
124 381 1
124 404 1
124 467 1
124 492 1
124 493 1
125 78 1
125 467 1
126 203 1
126 264 1
126 266 1
126 374 1
126 525 1
127 70 1
127 203 1
127 218 1
127 419 1
127 515 1
127 545 1
128 63 1
128 92 1
128 315 1
128 386 1
129 87 1
129 156 1
129 198 1
129 290 1
129 305 1
129 519 1
130 28 1
130 86 1
130 299 1
130 374 1
130 464 1
130 562 1
131 13 1
131 67 1
131 139 1
131 165 1
131 265 1
131 397 1
131 453 1
131 486 1
131 547 1
132 81 1
132 205 1
132 431 1
133 5 1
133 168 1
133 194 1
133 226 1
133 280 1
133 429 1
133 521 1
134 20 1
134 190 1
134 273 1
134 592 1
135 52 1
135 171 1
135 223 1
135 371 1
136 8 1
137 97 1
137 204 1
137 226 1
137 245 1
137 356 1
137 591 1
138 11 1
138 56 1
138 135 1
138 291 1
138 376 1
138 402 1
138 571 1
139 54 1
139 260 1
140 89 1
140 105 1
141 37 1
141 202 1
141 314 1
141 380 1
141 458 1
141 573 1
142 302 1
143 282 1
143 285 1
143 292 1
143 341 1
143 532 1
144 36 1
144 154 1
144 185 1
144 476 1
144 581 1
145 69 1
145 339 1
145 424 1
145 507 1
145 549 1
145 575 1
146 193 1
146 225 1
146 227 1
146 283 1
146 430 1
146 508 1
146 566 1
147 179 1
147 200 1
147 557 1
148 125 1
148 409 1
148 523 1
148 567 1
149 15 1
149 118 1
149 313 1
149 353 1
149 425 1
149 523 1
150 48 1
150 49 1
150 102 1
150 335 1
150 352 1
150 384 1
150 475 1
150 584 1
151 138 1
151 188 1
151 195 1
151 246 1
151 274 1
151 302 1
151 367 1
151 467 1
151 471 1
151 502 1
152 18 1
152 27 1
152 55 1
152 140 1
152 243 1
152 268 1
152 290 1
152 328 1
152 394 1
153 219 1
153 256 1
153 305 1
153 361 1
153 385 1
154 113 1
154 129 1
154 275 1
154 313 1
154 417 1
154 519 1
154 584 1
155 103 1
155 288 1
155 415 1
155 505 1
155 522 1
156 87 1
156 123 1
156 152 1
156 346 1
156 393 1
157 47 1
157 213 1
157 432 1
158 60 1
158 62 1
158 78 1
158 202 1
158 278 1
158 439 1
158 478 1
158 569 1
159 14 1
159 129 1
159 246 1
159 291 1
159 586 1
160 65 1
160 184 1
160 351 1
160 357 1
160 359 1
160 452 1
160 457 1
160 566 1
161 122 1
161 148 1
161 159 1
161 182 1
161 212 1
161 261 1
161 265 1
161 510 1
161 566 1
162 19 1
162 35 1
162 140 1
162 164 1
162 220 1
162 236 1
162 273 1
162 456 1
162 466 1
162 549 1
163 80 1
163 255 1
163 281 1
163 321 1
163 370 1
163 382 1
163 584 1
164 92 1
164 267 1
164 289 1
164 300 1
164 350 1
164 496 1
165 88 1
165 161 1
165 220 1
165 237 1
165 240 1
165 361 1
165 563 1
166 279 1
166 429 1
166 455 1
166 459 1
166 469 1
166 539 1
166 597 1
167 111 1
167 134 1
167 208 1
167 223 1
167 324 1
167 376 1
167 390 1
167 545 1
168 38 1
169 106 1
169 188 1
169 546 1
170 70 1
170 116 1
170 223 1
170 419 1
170 589 1
171 26 1
171 71 1
171 87 1
171 173 1
171 227 1
171 263 1
171 269 1
171 331 1
171 395 1
171 480 1
171 514 1
172 79 1
172 168 1
172 254 1
172 302 1
172 585 1
172 594 1
173 108 1
173 135 1
173 223 1
173 418 1
174 302 1
174 420 1
174 436 1
175 111 1
175 250 1
175 366 1
175 487 1
175 570 1
176 25 1
176 95 1
176 232 1
176 360 1
176 378 1
176 399 1
176 582 1
177 142 1
177 472 1
177 520 1
178 6 1
178 141 1
178 171 1
178 205 1
178 411 1
178 428 1
178 438 1
178 558 1
178 561 1
178 580 1
178 592 1
179 134 1
179 177 1
180 5 1
180 402 1
180 457 1
181 1 1
181 23 1
181 40 1
181 136 1
181 235 1
181 270 1
181 272 1
181 280 1
181 362 1
182 133 1
182 181 1
182 309 1
182 338 1
182 379 1
182 418 1
183 134 1
183 320 1
183 558 1
184 95 1
184 133 1
184 429 1
184 596 1
185 72 1
185 96 1
185 485 1
185 586 1
186 54 1
186 98 1
186 113 1
186 224 1
186 244 1
186 511 1
186 515 1
187 53 1
187 122 1
187 123 1
187 228 1
187 273 1
187 488 1
187 499 1
188 38 1
188 150 1
188 314 1
188 370 1
189 11 1
189 78 1
189 204 1
189 231 1
189 255 1
189 380 1
189 430 1
189 536 1
189 569 1
190 33 1
190 171 1
190 205 1
190 214 1
190 252 1
190 348 1
190 450 1
190 467 1
190 502 1
190 505 1
190 592 1
191 259 1
191 300 1
191 331 1
191 403 1
191 493 1
192 64 1
192 164 1
192 219 1
192 482 1
192 578 1
193 339 1
193 361 1
193 403 1
193 475 1
193 491 1
194 37 1
194 121 1
194 140 1
194 181 1
194 223 1
194 243 1
194 444 1
194 459 1
194 463 1
194 513 1
194 580 1
195 191 1
195 202 1
195 240 1
195 274 1
195 339 1
195 541 1
195 555 1
196 170 1
196 465 1
196 567 1
197 87 1
197 161 1
197 514 1
197 555 1
198 149 1
198 367 1
198 427 1
198 433 1
198 445 1
199 61 1
199 103 1
199 114 1
199 126 1
199 597 1
200 118 1
200 120 1
200 129 1
200 187 1
200 229 1
200 335 1
200 451 1
200 588 1
201 140 1
201 160 1
201 190 1
201 210 1
202 11 1
202 47 1
202 56 1
202 332 1
202 368 1
202 408 1
202 463 1
202 558 1
203 241 1
203 339 1
203 400 1
203 402 1
203 414 1
203 424 1
203 427 1
203 460 1
203 536 1
203 569 1
204 28 1
204 103 1
204 142 1
204 201 1
204 231 1
204 286 1
204 331 1
205 10 1
205 60 1
205 149 1
205 310 1
205 312 1
205 380 1
205 396 1
205 516 1
205 536 1
205 569 1
206 167 1
206 288 1
206 590 1
207 43 1
207 60 1
207 91 1
207 186 1
207 202 1
207 332 1
207 489 1
207 527 1
207 528 1
207 582 1
208 123 1
208 147 1
208 155 1
208 515 1
209 64 1
209 290 1
209 570 1
210 63 1
210 101 1
210 183 1
210 201 1
210 259 1
210 290 1
210 345 1
210 355 1
210 374 1
210 445 1
210 553 1
211 67 1
211 112 1
211 261 1
211 353 1
211 358 1
211 387 1
211 438 1
211 500 1
211 518 1
211 540 1
212 38 1
212 70 1
212 251 1
212 594 1
213 70 1
213 157 1
213 159 1
213 392 1
213 408 1
213 505 1
214 34 1
214 35 1
214 41 1
214 94 1
214 358 1
214 539 1
215 119 1
215 128 1
215 167 1
215 185 1
215 258 1
215 324 1
215 517 1
216 9 1
216 39 1
216 150 1
216 181 1
216 249 1
216 268 1
217 27 1
217 71 1
217 109 1
218 27 1
218 55 1
218 147 1
218 165 1
218 221 1
218 230 1
218 346 1
218 378 1
218 502 1
218 537 1
219 90 1
219 315 1
219 383 1
220 149 1
220 219 1
220 356 1
220 497 1
221 69 1
221 208 1
221 449 1
222 65 1
222 95 1
222 108 1
222 119 1
222 270 1
222 337 1
222 477 1
222 518 1
222 531 1
223 160 1
223 174 1
223 294 1
223 371 1
223 417 1
223 562 1
224 150 1
224 305 1
224 311 1
224 350 1
224 375 1
224 452 1
224 592 1
225 49 1
225 127 1
225 472 1
226 57 1
226 364 1
226 549 1
226 550 1
226 553 1
226 563 1
227 162 1
227 285 1
227 435 1
227 472 1
227 479 1
228 27 1
228 112 1
228 161 1
228 276 1
228 503 1
229 93 1
229 434 1
230 347 1
230 491 1
230 512 1
230 548 1
230 585 1
231 290 1
231 357 1
231 361 1
231 430 1
232 2 1
232 137 1
232 277 1
232 295 1
232 477 1
232 532 1
232 555 1
233 49 1
233 73 1
233 414 1
233 449 1
233 459 1
234 73 1
234 79 1
234 85 1
234 111 1
234 209 1
234 290 1
234 395 1
234 478 1
234 488 1
234 534 1
235 95 1
235 200 1
235 222 1
235 265 1
235 349 1
235 383 1
235 384 1
235 425 1
236 59 1
236 321 1
236 376 1
236 441 1
237 98 1
237 156 1
237 225 1
237 398 1
237 403 1
238 19 1
238 37 1
238 323 1
238 410 1
238 463 1
238 498 1
238 577 1
239 171 1
239 297 1
239 514 1
239 551 1
239 586 1
240 19 1
240 46 1
240 174 1
240 256 1
240 325 1
240 443 1
240 479 1
240 487 1
241 94 1
241 293 1
242 107 1
242 330 1
242 346 1
242 470 1
242 472 1
242 550 1
242 579 1
242 585 1
243 72 1
243 157 1
243 210 1
243 215 1
243 249 1
243 337 1
243 389 1
243 575 1
243 582 1
243 597 1
244 41 1
244 100 1
244 182 1
244 317 1
245 24 1
245 98 1
245 107 1
245 128 1
245 187 1
245 263 1
245 294 1
245 318 1
245 321 1
245 329 1
245 368 1
246 43 1
246 112 1
246 207 1
246 228 1
246 548 1
246 588 1
247 95 1
247 167 1
247 176 1
247 185 1
247 335 1
247 348 1
247 365 1
247 458 1
247 490 1
247 496 1
247 538 1
248 114 1
248 157 1
248 194 1
248 374 1
248 525 1
248 590 1
249 446 1
249 472 1
250 76 1
250 128 1
250 137 1
250 197 1
250 275 1
250 419 1
250 442 1
251 525 1
252 61 1
252 117 1
252 139 1
252 147 1
252 159 1
252 273 1
252 340 1
252 410 1
252 415 1
252 430 1
253 2 1
253 119 1
253 181 1
253 418 1
253 462 1
253 504 1
253 578 1
253 598 1
254 7 1
254 81 1
254 99 1
254 112 1
254 231 1
254 456 1
254 461 1
254 556 1
254 593 1
255 48 1
255 147 1
255 259 1
255 279 1
255 492 1
256 25 1
256 51 1
256 155 1
256 255 1
256 384 1
256 507 1
256 553 1
257 24 1
257 30 1
257 46 1
257 163 1
257 266 1
257 357 1
258 108 1
258 296 1
258 324 1
258 444 1
258 489 1
258 498 1
258 509 1
258 591 1
259 3 1
259 223 1
259 539 1
259 592 1
260 123 1
260 499 1
260 519 1
261 175 1
261 225 1
261 405 1
262 42 1
262 108 1
262 139 1
262 201 1
262 255 1
262 281 1
262 298 1
262 378 1
262 390 1
262 394 1
262 539 1
263 66 1
263 68 1
263 89 1
263 264 1
263 547 1
263 575 1
264 67 1
264 75 1
264 257 1
264 298 1
264 338 1
264 349 1
264 489 1
265 325 1
265 368 1
265 453 1
265 600 1
266 295 1
266 310 1
266 344 1
266 539 1
267 33 1
267 98 1
267 140 1
267 316 1
267 323 1
267 402 1
267 486 1
267 584 1
268 26 1
268 80 1
268 258 1
269 178 1
269 215 1
269 310 1
269 488 1
269 489 1
270 35 1
270 60 1
270 147 1
270 336 1
270 387 1
270 484 1
271 29 1
271 182 1
271 246 1
271 399 1
271 425 1
272 84 1
272 147 1
272 151 1
272 247 1
272 253 1
272 388 1
272 422 1
272 479 1
272 503 1
272 555 1
273 429 1
273 438 1
273 444 1
273 493 1
273 507 1
273 562 1
274 39 1
274 40 1
274 50 1
274 94 1
274 115 1
274 119 1
274 324 1
274 343 1
274 361 1
274 410 1
274 503 1
275 175 1
275 191 1
275 223 1
275 267 1
275 337 1
275 435 1
275 534 1
276 2 1
276 43 1
276 263 1
276 293 1
276 515 1
277 43 1
277 206 1
277 265 1
277 575 1
278 44 1
278 86 1
278 117 1
278 151 1
278 158 1
278 391 1
278 575 1
279 242 1
279 366 1
279 494 1
279 510 1
280 213 1
280 430 1
280 503 1
280 577 1
281 5 1
281 134 1
281 223 1
281 246 1
281 285 1
281 415 1
282 25 1
282 88 1
282 401 1
282 435 1
283 87 1
283 111 1
283 160 1
283 376 1
283 515 1
284 90 1
284 138 1
284 227 1
284 526 1
285 395 1
285 412 1
285 561 1
285 591 1
286 64 1
286 268 1
287 34 1
287 62 1
287 85 1
287 176 1
287 235 1
287 251 1
287 349 1
287 387 1
287 398 1
287 532 1
287 537 1
288 11 1
288 157 1
288 205 1
288 212 1
288 224 1
288 364 1
289 1 1
289 133 1
289 185 1
289 261 1
289 307 1
289 328 1
289 416 1
289 495 1
290 32 1
290 34 1
290 77 1
290 116 1
290 226 1
290 231 1
290 232 1
290 321 1
290 531 1
291 2 1
291 120 1
291 242 1
291 395 1
291 447 1
291 453 1
292 3 1
292 193 1
292 267 1
292 268 1
292 391 1
292 535 1
293 6 1
293 61 1
293 195 1
293 218 1
293 221 1
293 506 1
293 577 1
294 61 1
294 138 1
294 213 1
294 245 1
294 329 1
295 111 1
295 193 1
295 326 1
295 346 1
295 452 1
295 464 1
295 478 1
295 499 1
295 507 1
295 568 1
295 583 1
295 596 1
296 242 1
296 310 1
296 428 1
296 464 1
296 477 1
296 584 1
297 7 1
297 34 1
297 187 1
297 221 1
297 247 1
297 284 1
297 360 1
297 410 1
297 479 1
297 489 1
297 492 1
298 39 1
298 122 1
298 145 1
298 211 1
298 484 1
298 499 1
298 514 1
298 526 1
299 9 1
299 31 1
299 51 1
299 60 1
299 103 1
299 113 1
299 384 1
299 440 1
299 468 1
299 520 1
300 60 1
300 323 1
300 329 1
300 331 1
300 454 1
300 476 1
300 578 1
300 590 1
301 37 1
301 91 1
301 182 1
301 234 1
301 461 1
301 472 1
301 490 1
301 591 1
302 57 1
302 330 1
302 376 1
303 129 1
303 133 1
303 292 1
303 388 1
303 525 1
304 70 1
304 109 1
304 139 1
304 168 1
304 223 1
304 233 1
304 247 1
304 353 1
304 401 1
304 437 1
304 511 1
304 551 1
305 39 1
305 107 1
305 118 1
305 318 1
305 445 1
305 490 1
306 127 1
306 147 1
306 203 1
306 219 1
306 402 1
306 450 1
307 28 1
307 94 1
307 381 1
307 498 1
308 12 1
308 70 1
308 78 1
308 101 1
308 108 1
308 208 1
308 300 1
308 350 1
308 366 1
308 385 1
308 437 1
308 568 1
309 39 1
309 101 1
309 133 1
309 242 1
309 326 1
309 459 1
309 501 1
309 582 1
310 112 1
310 266 1
310 455 1
310 464 1
311 124 1
311 150 1
311 163 1
311 477 1
311 539 1
311 571 1
312 147 1
312 172 1
312 275 1
312 385 1
312 402 1
313 147 1
313 278 1
313 307 1
313 583 1
314 4 1
314 29 1
314 60 1
314 285 1
314 569 1
315 27 1
315 33 1
315 367 1
315 390 1
315 478 1
316 90 1
316 146 1
316 269 1
316 395 1
316 458 1
317 147 1
317 224 1
317 418 1
317 488 1
317 562 1
318 98 1
318 242 1
318 300 1
319 35 1
319 264 1
319 348 1
319 390 1
319 401 1
319 520 1
320 165 1
320 251 1
320 339 1
320 512 1
320 579 1
320 595 1
321 34 1
321 176 1
321 312 1
321 498 1
322 352 1
322 379 1
322 542 1
323 35 1
323 177 1
323 224 1
323 395 1
324 31 1
324 73 1
324 303 1
324 320 1
324 429 1
324 445 1
324 448 1
324 469 1
324 594 1
325 39 1
325 47 1
325 215 1
325 228 1
325 284 1
325 435 1
325 471 1
326 209 1
326 292 1
326 343 1
326 373 1
326 391 1
326 495 1
326 550 1
327 115 1
327 189 1
327 261 1
327 464 1
327 592 1
328 5 1
328 147 1
328 194 1
328 209 1
328 326 1
328 376 1
328 444 1
329 92 1
329 129 1
329 178 1
329 385 1
329 445 1
330 24 1
330 205 1
330 248 1
330 293 1
330 342 1
330 346 1
331 157 1
331 215 1
331 380 1
331 386 1
331 500 1
331 551 1
331 561 1
331 567 1
331 591 1
332 91 1
332 262 1
332 277 1
332 330 1
332 332 1
332 583 1
333 300 1
333 417 1
333 418 1
333 536 1
334 24 1
334 49 1
334 136 1
334 204 1
334 248 1
334 390 1
334 406 1
334 570 1
335 108 1
335 181 1
335 403 1
335 576 1
336 101 1
336 288 1
336 321 1
336 408 1
336 419 1
336 469 1
337 34 1
337 62 1
337 119 1
337 168 1
337 182 1
337 266 1
337 474 1
337 504 1
337 516 1
338 48 1
338 217 1
338 253 1
338 370 1
338 423 1
339 3 1
339 116 1
339 243 1
339 342 1
339 357 1
340 76 1
340 106 1
340 123 1
340 258 1
340 272 1
340 374 1
340 383 1
341 271 1
341 436 1
341 473 1
341 494 1
341 576 1
342 88 1
342 340 1
343 88 1
343 201 1
343 267 1
343 271 1
343 412 1
343 436 1
344 261 1
344 270 1
344 303 1
344 555 1
344 589 1
345 197 1
345 320 1
345 434 1
345 463 1
346 33 1
346 93 1
346 392 1
346 424 1
346 552 1
347 147 1
347 307 1
347 360 1
347 484 1
347 510 1
348 59 1
348 147 1
348 408 1
348 477 1
348 545 1
349 182 1
349 319 1
349 521 1
349 562 1
349 576 1
350 221 1
350 557 1
351 23 1
351 58 1
351 60 1
351 72 1
351 335 1
351 346 1
351 400 1
351 593 1
352 325 1
352 382 1
352 420 1
353 70 1
353 106 1
353 142 1
353 185 1
353 208 1
353 216 1
353 374 1
353 434 1
353 437 1
353 454 1
353 537 1
353 581 1
353 596 1
354 111 1
354 179 1
354 197 1
354 312 1
354 375 1
354 430 1
354 489 1
354 492 1
354 574 1
354 586 1
355 53 1
355 85 1
355 165 1
355 175 1
355 347 1
355 439 1
355 584 1
356 43 1
356 233 1
356 237 1
356 270 1
356 275 1
356 521 1
356 580 1
357 51 1
357 370 1
357 394 1
357 517 1
357 548 1
357 557 1
357 574 1
357 586 1
357 596 1
358 25 1
358 28 1
358 70 1
358 83 1
358 126 1
358 248 1
358 262 1
358 315 1
358 374 1
358 406 1
359 156 1
359 226 1
359 407 1
359 568 1
360 46 1
360 90 1
360 120 1
360 127 1
360 209 1
360 264 1
360 555 1
361 46 1
361 61 1
361 106 1
361 131 1
361 193 1
361 227 1
362 56 1
362 171 1
362 189 1
362 275 1
362 309 1
362 481 1
362 525 1
362 571 1
363 50 1
363 97 1
363 141 1
363 177 1
363 431 1
364 62 1
364 90 1
364 243 1
365 45 1
365 256 1
365 302 1
365 438 1
365 503 1
365 561 1
366 95 1
366 191 1
366 221 1
366 266 1
366 343 1
367 174 1
367 213 1
367 253 1
367 317 1
367 457 1
367 582 1
367 587 1
367 594 1
368 3 1
368 177 1
368 333 1
368 424 1
368 580 1
368 582 1
369 35 1
369 130 1
369 157 1
369 174 1
369 240 1
369 354 1
369 410 1
369 584 1
370 185 1
370 312 1
370 374 1
370 407 1
370 413 1
370 472 1
370 521 1
371 13 1
371 112 1
371 114 1
371 153 1
371 205 1
371 306 1
371 347 1
371 481 1
371 489 1
371 545 1
371 564 1
371 595 1
372 18 1
372 103 1
372 145 1
372 213 1
372 257 1
372 306 1
372 411 1
372 418 1
372 460 1
372 568 1
372 580 1
373 51 1
373 95 1
373 117 1
373 138 1
373 227 1
373 356 1
374 27 1
374 204 1
374 275 1
374 378 1
375 79 1
375 397 1
375 427 1
376 9 1
376 164 1
376 299 1
376 408 1
376 591 1
377 17 1
377 73 1
377 170 1
377 178 1
377 208 1
377 298 1
377 395 1
377 406 1
377 425 1
377 448 1
377 506 1
377 515 1
378 31 1
378 90 1
378 202 1
378 227 1
378 319 1
378 411 1
378 570 1
379 67 1
379 160 1
380 258 1
380 264 1
380 271 1
380 476 1
380 503 1
380 571 1
381 65 1
381 132 1
381 156 1
381 393 1
381 473 1
382 157 1
382 210 1
382 214 1
382 233 1
382 286 1
382 314 1
382 421 1
382 426 1
382 541 1
383 148 1
383 196 1
383 201 1
383 210 1
383 334 1
383 343 1
383 349 1
383 419 1
384 130 1
384 451 1
384 563 1
385 157 1
385 502 1
385 507 1
385 544 1
386 12 1
386 119 1
386 244 1
386 271 1
386 355 1
386 360 1
387 150 1
387 196 1
387 349 1
387 362 1
387 408 1
387 424 1
387 539 1
388 31 1
388 120 1
388 204 1
388 216 1
388 308 1
388 385 1
388 421 1
388 435 1
388 469 1
388 479 1
388 545 1
389 91 1
389 124 1
389 237 1
389 255 1
389 358 1
389 497 1
390 57 1
390 95 1
390 311 1
390 369 1
390 378 1
390 401 1
390 407 1
391 38 1
391 140 1
391 210 1
391 221 1
391 528 1
391 540 1
391 562 1
392 39 1
392 253 1
392 296 1
393 185 1
393 367 1
393 456 1
394 9 1
394 103 1
394 200 1
394 249 1
394 432 1
394 515 1
395 113 1
395 167 1
395 181 1
395 183 1
395 332 1
395 370 1
395 426 1
395 451 1
395 473 1
395 582 1
396 20 1
396 99 1
396 136 1
396 211 1
396 236 1
396 273 1
396 297 1
396 348 1
396 506 1
396 518 1
397 135 1
397 235 1
397 442 1
397 534 1
398 78 1
398 266 1
398 434 1
398 518 1
398 577 1
398 587 1
399 8 1
399 250 1
399 288 1
399 326 1
399 345 1
400 10 1
400 47 1
400 70 1
400 164 1
400 224 1
400 239 1
400 250 1
400 324 1
400 520 1
400 527 1
401 60 1
401 257 1
401 294 1
401 334 1
401 369 1
401 599 1
402 160 1
402 228 1
402 311 1
402 326 1
402 394 1
403 191 1
403 433 1
403 488 1
403 569 1
404 275 1
404 397 1
404 565 1
405 94 1
405 213 1
405 372 1
405 408 1
405 461 1
405 484 1
405 522 1
405 525 1
406 150 1
406 161 1
406 245 1
406 321 1
406 362 1
406 505 1
406 506 1
406 523 1
406 593 1
407 19 1
407 182 1
407 187 1
407 212 1
407 289 1
407 303 1
407 406 1
407 441 1
407 573 1
408 39 1
408 345 1
408 401 1
408 467 1
408 520 1
409 72 1
409 128 1
409 318 1
409 349 1
409 352 1
409 399 1
409 549 1
410 38 1
410 39 1
410 127 1
410 131 1
410 248 1
410 328 1
410 562 1
411 84 1
411 266 1
411 417 1
411 457 1
411 496 1
412 37 1
412 81 1
412 97 1
412 285 1
412 341 1
412 450 1
412 526 1
413 102 1
413 115 1
413 183 1
413 269 1
413 293 1
413 533 1
413 594 1
414 81 1
414 141 1
414 208 1
414 226 1
414 294 1
414 425 1
414 499 1
414 522 1
414 561 1
414 570 1
415 50 1
415 264 1
416 30 1
416 50 1
416 85 1
416 342 1
416 503 1
417 66 1
417 145 1
417 153 1
417 315 1
417 339 1
417 411 1
417 557 1
418 126 1
418 280 1
418 434 1
418 464 1
418 556 1
419 47 1
419 196 1
419 277 1
419 343 1
419 425 1
419 569 1
420 103 1
420 110 1
420 252 1
420 289 1
420 338 1
420 527 1
420 540 1
420 550 1
420 556 1
421 69 1
421 87 1
421 178 1
421 190 1
421 258 1
421 262 1
421 473 1
421 476 1
422 124 1
422 193 1
422 212 1
422 256 1
422 300 1
422 591 1
423 171 1
423 275 1
423 479 1
423 558 1
423 599 1
425 32 1
425 76 1
425 148 1
426 39 1
426 218 1
426 233 1
426 257 1
426 305 1
426 319 1
426 330 1
426 368 1
426 383 1
427 74 1
427 112 1
427 154 1
427 176 1
427 330 1
427 547 1
427 590 1
428 162 1
428 335 1
428 416 1
428 428 1
429 24 1
429 42 1
429 121 1
429 245 1
429 252 1
429 303 1
429 370 1
429 372 1
429 428 1
430 71 1
430 173 1
430 227 1
430 332 1
430 340 1
430 383 1
430 398 1
430 424 1
430 440 1
431 85 1
431 415 1
432 27 1
432 286 1
432 316 1
432 375 1
432 406 1
432 505 1
433 185 1
433 341 1
434 12 1
434 41 1
434 80 1
434 297 1
434 503 1
434 507 1
434 533 1
434 567 1
435 183 1
435 304 1
435 308 1
435 378 1
436 40 1
436 91 1
436 119 1
436 170 1
436 452 1
436 506 1
436 593 1
437 81 1
437 106 1
437 123 1
437 125 1
437 200 1
437 266 1
438 24 1
438 52 1
438 59 1
438 128 1
438 191 1
438 361 1
438 493 1
439 44 1
439 135 1
439 225 1
439 226 1
439 267 1
439 362 1
439 570 1
440 54 1
440 104 1
440 105 1
440 190 1
440 371 1
440 391 1
440 455 1
441 6 1
441 224 1
441 337 1
441 470 1
442 8 1
442 95 1
442 124 1
442 157 1
442 312 1
442 319 1
442 376 1
443 60 1
443 180 1
443 214 1
443 250 1
443 301 1
443 335 1
443 426 1
443 554 1
444 46 1
444 57 1
444 75 1
444 107 1
444 159 1
444 177 1
444 255 1
444 273 1
444 325 1
444 460 1
444 464 1
445 75 1
445 296 1
445 424 1
445 439 1
445 525 1
445 590 1
446 122 1
446 140 1
446 179 1
446 293 1
446 410 1
446 504 1
446 575 1
447 54 1
447 76 1
447 219 1
447 239 1
447 246 1
447 468 1
447 561 1
447 592 1
448 98 1
448 458 1
448 482 1
448 491 1
449 125 1
449 151 1
449 209 1
449 227 1
449 244 1
449 433 1
449 475 1
450 48 1
450 66 1
450 239 1
450 323 1
450 400 1
450 484 1
451 272 1
451 490 1
451 498 1
452 55 1
452 90 1
452 298 1
452 595 1
453 284 1
453 498 1
453 569 1
453 575 1
454 257 1
454 378 1
454 403 1
454 480 1
454 577 1
455 18 1
455 325 1
455 591 1
456 85 1
456 201 1
456 400 1
456 566 1
457 24 1
457 33 1
457 96 1
457 119 1
457 236 1
457 314 1
457 397 1
457 595 1
458 93 1
458 220 1
458 327 1
459 30 1
459 31 1
459 227 1
459 326 1
459 420 1
459 451 1
459 563 1
459 579 1
460 133 1
460 156 1
460 257 1
460 374 1
460 383 1
460 423 1
460 456 1
460 562 1
460 578 1
461 258 1
461 285 1
461 316 1
461 413 1
461 457 1
461 486 1
462 302 1
462 321 1
462 476 1
463 192 1
463 316 1
463 338 1
463 346 1
463 396 1
463 584 1
464 40 1
464 156 1
464 303 1
464 363 1
464 373 1
464 399 1
464 403 1
464 448 1
465 56 1
465 275 1
465 347 1
465 393 1
465 517 1
465 562 1
466 1 1
466 8 1
466 69 1
466 108 1
466 233 1
466 372 1
466 441 1
466 491 1
467 184 1
467 236 1
467 455 1
467 457 1
467 468 1
467 571 1
468 68 1
468 99 1
468 103 1
468 117 1
468 177 1
468 344 1
468 460 1
469 130 1
469 289 1
469 492 1
470 411 1
470 454 1
471 284 1
471 293 1
471 334 1
471 402 1
471 422 1
471 525 1
471 545 1
472 2 1
472 57 1
472 116 1
472 146 1
472 309 1
472 439 1
473 57 1
473 62 1
473 133 1
473 279 1
473 387 1
473 430 1
473 541 1
474 217 1
474 423 1
474 481 1
475 39 1
475 50 1
475 237 1
475 321 1
476 84 1
476 165 1
476 199 1
476 269 1
476 270 1
476 410 1
476 481 1
476 550 1
476 556 1
476 563 1
477 38 1
477 233 1
477 359 1
477 396 1
477 453 1
477 510 1
477 560 1
478 208 1
478 341 1
479 146 1
479 192 1
479 276 1
479 456 1
480 263 1
480 291 1
480 334 1
480 432 1
480 512 1
480 545 1
480 551 1
481 5 1
481 26 1
481 57 1
481 77 1
481 140 1
481 216 1
481 332 1
481 341 1
481 443 1
481 463 1
481 530 1
481 559 1
482 15 1
482 90 1
482 100 1
482 145 1
482 249 1
482 289 1
483 254 1
483 325 1
483 327 1
483 589 1
484 176 1
484 243 1
484 503 1
484 518 1
485 3 1
485 146 1
485 195 1
485 282 1
485 285 1
485 290 1
486 25 1
486 69 1
486 186 1
486 366 1
486 384 1
486 469 1
486 505 1
486 532 1
487 68 1
487 109 1
487 190 1
487 208 1
487 550 1
487 561 1
488 86 1
488 179 1
488 207 1
488 306 1
488 507 1
489 130 1
489 142 1
489 381 1
489 460 1
489 499 1
489 502 1
489 561 1
489 576 1
489 583 1
490 94 1
491 57 1
491 67 1
491 298 1
491 551 1
492 23 1
492 24 1
492 78 1
492 89 1
492 115 1
492 133 1
492 313 1
492 438 1
492 508 1
492 559 1
493 18 1
493 50 1
493 63 1
493 138 1
493 182 1
493 568 1
493 571 1
494 45 1
494 103 1
494 153 1
494 262 1
494 280 1
494 450 1
494 499 1
495 39 1
495 163 1
495 223 1
495 289 1
495 533 1
496 84 1
496 104 1
496 117 1
496 147 1
496 376 1
496 500 1
496 508 1
497 292 1
497 468 1
497 564 1
498 33 1
498 79 1
498 82 1
498 137 1
498 290 1
498 431 1
498 594 1
499 103 1
499 343 1
499 497 1
499 594 1
500 165 1
500 441 1
500 526 1
501 63 1
501 227 1
501 316 1
501 338 1
501 344 1
501 380 1
501 431 1
501 534 1
502 50 1
502 199 1
502 308 1
502 472 1
502 550 1
503 3 1
503 21 1
503 226 1
503 258 1
503 403 1
503 468 1
503 483 1
503 567 1
504 114 1
504 295 1
504 493 1
504 543 1
505 60 1
505 63 1
505 232 1
505 299 1
505 346 1
505 390 1
505 542 1
506 115 1
506 170 1
506 258 1
506 333 1
506 533 1
507 155 1
507 199 1
507 525 1
507 538 1
508 136 1
508 271 1
509 1 1
509 66 1
509 159 1
509 326 1
509 336 1
509 343 1
509 522 1
510 13 1
510 203 1
510 229 1
510 249 1
510 324 1
510 376 1
510 384 1
510 594 1
511 104 1
511 108 1
511 153 1
511 338 1
511 390 1
511 515 1
511 539 1
512 47 1
512 138 1
512 191 1
512 215 1
512 363 1
513 49 1
513 166 1
513 283 1
513 437 1
513 518 1
513 552 1
514 71 1
514 155 1
514 595 1
515 29 1
515 194 1
515 234 1
516 51 1
516 189 1
516 252 1
516 307 1
517 34 1
517 212 1
517 228 1
517 259 1
517 393 1
517 396 1
517 440 1
517 522 1
518 40 1
518 358 1
518 403 1
519 13 1
519 201 1
519 268 1
519 283 1
519 496 1
519 536 1
520 54 1
520 68 1
520 173 1
521 3 1
521 17 1
521 46 1
521 89 1
521 100 1
521 247 1
521 312 1
521 472 1
521 480 1
521 550 1
522 29 1
522 133 1
522 242 1
522 394 1
522 508 1
522 547 1
522 577 1
523 12 1
523 96 1
523 149 1
523 150 1
523 226 1
523 256 1
523 414 1
523 450 1
523 520 1
523 524 1
523 595 1
524 5 1
524 88 1
524 103 1
524 137 1
524 163 1
524 371 1
524 378 1
524 410 1
524 528 1
525 72 1
525 183 1
525 265 1
525 348 1
525 378 1
525 388 1
525 393 1
525 465 1
526 537 1
526 568 1
526 593 1
527 234 1
527 251 1
527 289 1
527 305 1
527 306 1
527 313 1
527 324 1
527 396 1
527 434 1
527 468 1
527 507 1
527 573 1
528 123 1
528 385 1
528 441 1
528 443 1
528 505 1
528 510 1
528 523 1
528 548 1
528 570 1
528 582 1
529 68 1
529 137 1
529 381 1
529 495 1
530 338 1
530 371 1
531 19 1
531 95 1
531 480 1
532 2 1
532 118 1
532 272 1
532 288 1
532 331 1
532 598 1
533 55 1
533 146 1
533 304 1
533 357 1
533 402 1
533 432 1
533 535 1
533 567 1
534 150 1
534 380 1
535 148 1
535 163 1
535 182 1
535 257 1
535 315 1
535 339 1
535 440 1
536 25 1
536 152 1
536 384 1
536 517 1
536 586 1
537 121 1
537 217 1
537 509 1
537 536 1
538 174 1
538 338 1
538 378 1
538 390 1
538 531 1
539 73 1
539 103 1
539 278 1
539 303 1
539 399 1
539 460 1
539 502 1
540 25 1
540 54 1
540 148 1
540 180 1
541 98 1
541 260 1
541 293 1
541 363 1
541 406 1
541 463 1
542 26 1
542 171 1
542 183 1
542 236 1
542 323 1
542 374 1
542 493 1
542 522 1
542 577 1
543 136 1
543 189 1
543 203 1
543 216 1
543 247 1
543 282 1
543 366 1
543 367 1
543 590 1
544 539 1
545 88 1
545 177 1
545 223 1
545 247 1
545 260 1
545 263 1
545 452 1
546 35 1
546 140 1
546 437 1
546 449 1
547 20 1
547 108 1
547 166 1
547 463 1
547 578 1
548 57 1
548 97 1
548 125 1
548 252 1
548 333 1
548 417 1
548 441 1
548 527 1
548 573 1
548 594 1
549 219 1
549 262 1
549 379 1
549 433 1
549 521 1
550 202 1
550 405 1
550 491 1
551 6 1
551 181 1
551 494 1
551 570 1
552 77 1
552 187 1
552 224 1
552 230 1
552 302 1
552 497 1
552 575 1
553 191 1
553 302 1
553 387 1
553 519 1
553 526 1
553 598 1
554 79 1
554 119 1
554 416 1
554 561 1
555 8 1
555 96 1
555 131 1
555 141 1
555 143 1
555 235 1
555 452 1
555 552 1
556 265 1
556 377 1
556 380 1
556 389 1
557 349 1
557 412 1
557 431 1
557 526 1
558 45 1
558 142 1
558 238 1
558 308 1
558 380 1
559 38 1
559 130 1
559 157 1
559 311 1
559 316 1
559 359 1
559 463 1
559 494 1
559 502 1
559 512 1
560 55 1
560 120 1
560 133 1
560 138 1
561 24 1
561 156 1
561 174 1
561 186 1
561 251 1
561 283 1
562 26 1
562 71 1
562 214 1
562 348 1
562 378 1
562 415 1
562 528 1
563 14 1
563 29 1
563 83 1
563 150 1
563 161 1
563 205 1
563 219 1
563 404 1
563 415 1
563 518 1
564 32 1
564 121 1
564 151 1
564 161 1
564 176 1
564 287 1
564 310 1
564 318 1
564 346 1
564 390 1
564 434 1
564 540 1
565 74 1
565 206 1
565 419 1
565 586 1
566 230 1
566 237 1
566 458 1
566 526 1
567 27 1
567 48 1
567 163 1
567 230 1
567 255 1
567 363 1
568 22 1
568 31 1
568 187 1
568 391 1
568 412 1
568 413 1
568 498 1
568 503 1
569 177 1
569 233 1
569 288 1
569 337 1
569 407 1
569 488 1
570 35 1
570 90 1
570 166 1
570 272 1
570 287 1
570 414 1
570 514 1
570 576 1
570 583 1
571 316 1
571 415 1
571 552 1
571 580 1
571 594 1
572 124 1
572 144 1
572 250 1
572 315 1
572 330 1
572 360 1
572 470 1
572 474 1
572 476 1
573 168 1
573 215 1
573 247 1
573 282 1
573 310 1
573 347 1
573 379 1
573 420 1
573 447 1
573 463 1
574 135 1
574 335 1
574 412 1
574 417 1
574 531 1
574 562 1
574 564 1
575 5 1
575 18 1
575 381 1
575 547 1
575 594 1
576 18 1
576 126 1
576 166 1
576 240 1
576 310 1
576 316 1
576 503 1
576 595 1
577 51 1
577 67 1
577 165 1
577 222 1
577 232 1
577 243 1
577 362 1
577 379 1
577 430 1
577 507 1
577 511 1
577 528 1
578 48 1
578 134 1
578 394 1
579 120 1
579 154 1
579 161 1
579 370 1
579 407 1
579 455 1
579 477 1
580 271 1
580 317 1
580 573 1
580 596 1
581 80 1
581 85 1
581 103 1
581 126 1
581 157 1
581 463 1
582 41 1
582 86 1
582 355 1
582 433 1
583 200 1
583 227 1
583 548 1
583 600 1
584 22 1
584 30 1
584 42 1
584 92 1
584 182 1
584 207 1
584 491 1
585 147 1
585 250 1
585 267 1
585 305 1
585 451 1
585 557 1
585 558 1
586 132 1
586 394 1
586 442 1
586 517 1
586 545 1
587 263 1
587 317 1
587 425 1
587 570 1
587 582 1
588 1 1
588 307 1
588 343 1
588 403 1
588 581 1
589 28 1
589 59 1
589 66 1
589 260 1
589 293 1
589 491 1
590 202 1
590 204 1
590 445 1
591 22 1
591 212 1
591 327 1
591 377 1
591 397 1
591 460 1
591 589 1
592 191 1
592 278 1
592 507 1
592 576 1
593 135 1
593 158 1
593 210 1
593 306 1
593 407 1
593 531 1
594 27 1
594 85 1
594 198 1
594 326 1
595 3 1
595 9 1
595 42 1
595 213 1
595 262 1
595 468 1
595 476 1
595 527 1
596 27 1
596 45 1
596 61 1
596 82 1
596 238 1
596 242 1
596 436 1
596 488 1
596 498 1
596 536 1
596 580 1
597 68 1
597 86 1
597 160 1
597 216 1
597 329 1
597 419 1
597 507 1
598 136 1
598 355 1
598 364 1
598 451 1
598 518 1
599 451 1
599 484 1
599 578 1
600 173 1
600 386 1
600 470 1
