%%MatrixMarket matrix coordinate real general
%
128 128 678
1 2 1
1 3 1
1 4 1
1 5 1
1 6 1
1 7 1
1 8 1
1 9 1
1 10 1
1 11 1
1 12 1
1 13 1
1 14 1
1 15 1
1 16 1
1 17 1
1 18 1
1 19 1
1 21 1
1 23 1
1 25 1
1 28 1
1 32 1
1 33 1
1 35 1
1 37 1
1 41 1
1 43 1
1 44 1
1 45 1
1 49 1
1 50 1
1 51 1
1 52 1
1 53 1
1 62 1
1 65 1
1 66 1
1 67 1
1 69 1
1 70 1
1 71 1
1 73 1
1 79 1
1 81 1
1 82 1
1 84 1
1 85 1
1 87 1
1 93 1
1 97 1
1 99 1
1 102 1
1 104 1
1 107 1
1 109 1
1 113 1
1 119 1
2 1 1
2 3 1
2 4 1
2 7 1
2 9 1
2 10 1
2 11 1
2 12 1
2 13 1
2 17 1
2 18 1
2 21 1
2 25 1
2 30 1
2 33 1
2 34 1
2 41 1
2 49 1
2 65 1
2 70 1
2 82 1
2 83 1
2 89 1
2 97 1
2 109 1
3 1 1
3 2 1
3 5 1
3 7 1
3 9 1
3 10 1
3 12 1
3 17 1
3 20 1
3 21 1
3 25 1
3 33 1
3 34 1
3 39 1
3 41 1
3 49 1
3 65 1
3 66 1
3 69 1
3 73 1
3 76 1
3 97 1
3 101 1
4 1 1
4 2 1
4 5 1
4 18 1
4 65 1
4 73 1
4 81 1
4 82 1
5 1 1
5 3 1
5 4 1
5 6 1
5 9 1
5 12 1
5 17 1
5 33 1
5 39 1
5 44 1
5 49 1
5 50 1
5 53 1
5 65 1
5 66 1
5 69 1
5 97 1
5 113 1
5 114 1
5 118 1
5 121 1
6 1 1
6 5 1
6 9 1
6 11 1
6 13 1
6 15 1
6 18 1
6 39 1
6 49 1
6 51 1
6 73 1
6 87 1
6 98 1
7 1 1
7 2 1
7 3 1
7 13 1
7 49 1
7 66 1
7 69 1
7 91 1
8 1 1
8 9 1
8 65 1
8 66 1
8 71 1
8 75 1
9 1 1
9 2 1
9 3 1
9 5 1
9 6 1
9 8 1
9 11 1
9 16 1
9 17 1
9 28 1
9 33 1
9 34 1
9 37 1
9 39 1
9 41 1
9 54 1
9 65 1
9 66 1
9 68 1
9 73 1
9 74 1
9 81 1
9 93 1
9 95 1
9 98 1
9 105 1
10 1 1
10 2 1
10 3 1
10 40 1
10 81 1
10 101 1
10 122 1
11 1 1
11 2 1
11 6 1
11 9 1
11 33 1
11 66 1
11 67 1
11 77 1
11 83 1
11 89 1
11 103 1
12 1 1
12 2 1
12 3 1
12 5 1
12 17 1
12 37 1
12 38 1
13 1 1
13 2 1
13 6 1
13 7 1
13 19 1
13 33 1
13 45 1
13 66 1
13 69 1
13 98 1
14 1 1
14 18 1
14 68 1
15 1 1
15 6 1
15 21 1
15 68 1
15 97 1
16 1 1
16 9 1
17 1 1
17 2 1
17 3 1
17 5 1
17 9 1
17 12 1
17 19 1
17 21 1
17 23 1
17 25 1
17 26 1
17 30 1
17 33 1
17 34 1
17 35 1
17 38 1
17 49 1
17 65 1
17 66 1
17 68 1
17 69 1
17 72 1
17 82 1
17 89 1
18 1 1
18 2 1
18 4 1
18 6 1
18 14 1
18 21 1
18 36 1
18 49 1
18 65 1
18 67 1
18 68 1
18 69 1
18 74 1
18 89 1
18 97 1
19 1 1
19 13 1
19 17 1
19 21 1
19 33 1
19 34 1
19 35 1
19 65 1
19 66 1
19 97 1
19 100 1
19 101 1
20 3 1
21 1 1
21 2 1
21 3 1
21 15 1
21 17 1
21 18 1
21 19 1
21 33 1
21 50 1
21 65 1
21 66 1
21 67 1
21 70 1
21 85 1
23 1 1
23 17 1
23 33 1
23 45 1
23 74 1
23 121 1
25 1 1
25 2 1
25 3 1
25 17 1
25 33 1
25 37 1
25 39 1
25 54 1
25 67 1
25 69 1
25 97 1
25 103 1
26 17 1
26 33 1
26 43 1
27 36 1
27 115 1
28 1 1
28 9 1
28 34 1
29 33 1
29 73 1
30 2 1
30 17 1
30 47 1
30 107 1
31 49 1
32 1 1
32 69 1
33 1 1
33 2 1
33 3 1
33 5 1
33 9 1
33 11 1
33 13 1
33 17 1
33 19 1
33 21 1
33 23 1
33 25 1
33 26 1
33 29 1
33 36 1
33 41 1
33 42 1
33 51 1
33 57 1
33 65 1
33 67 1
33 68 1
33 69 1
33 73 1
33 77 1
33 81 1
33 97 1
33 110 1
33 119 1
34 2 1
34 3 1
34 9 1
34 17 1
34 19 1
34 28 1
34 49 1
34 65 1
34 67 1
34 68 1
34 69 1
35 1 1
35 17 1
35 19 1
35 58 1
35 65 1
35 68 1
35 86 1
35 97 1
36 18 1
36 27 1
36 33 1
36 66 1
37 1 1
37 9 1
37 12 1
37 25 1
37 73 1
37 81 1
37 83 1
37 84 1
37 97 1
38 12 1
38 17 1
38 65 1
39 3 1
39 5 1
39 6 1
39 9 1
39 25 1
39 66 1
40 10 1
41 1 1
41 2 1
41 3 1
41 9 1
41 33 1
41 65 1
41 86 1
42 33 1
42 66 1
42 69 1
43 1 1
43 26 1
43 81 1
44 1 1
44 5 1
44 68 1
45 1 1
45 13 1
45 23 1
45 73 1
47 30 1
47 97 1
49 1 1
49 2 1
49 3 1
49 5 1
49 6 1
49 7 1
49 17 1
49 18 1
49 31 1
49 34 1
49 65 1
49 69 1
49 79 1
50 1 1
50 5 1
50 21 1
51 1 1
51 6 1
51 33 1
52 1 1
52 78 1
53 1 1
53 5 1
53 67 1
54 9 1
54 25 1
55 68 1
57 33 1
57 65 1
57 70 1
58 35 1
59 73 1
60 66 1
62 1 1
65 1 1
65 2 1
65 3 1
65 4 1
65 5 1
65 8 1
65 9 1
65 17 1
65 18 1
65 19 1
65 21 1
65 33 1
65 34 1
65 35 1
65 38 1
65 41 1
65 49 1
65 57 1
65 66 1
65 67 1
65 69 1
65 71 1
65 73 1
65 74 1
65 81 1
65 101 1
66 1 1
66 3 1
66 5 1
66 7 1
66 8 1
66 9 1
66 11 1
66 13 1
66 17 1
66 19 1
66 21 1
66 36 1
66 39 1
66 42 1
66 60 1
66 65 1
66 67 1
66 70 1
66 81 1
66 86 1
66 97 1
66 121 1
67 1 1
67 11 1
67 18 1
67 21 1
67 25 1
67 33 1
67 34 1
67 53 1
67 65 1
67 66 1
68 9 1
68 14 1
68 15 1
68 17 1
68 18 1
68 33 1
68 34 1
68 35 1
68 44 1
68 55 1
69 1 1
69 3 1
69 5 1
69 7 1
69 13 1
69 17 1
69 18 1
69 25 1
69 32 1
69 33 1
69 34 1
69 42 1
69 49 1
69 65 1
69 73 1
69 107 1
69 113 1
70 1 1
70 2 1
70 21 1
70 57 1
70 66 1
71 1 1
71 8 1
71 65 1
72 17 1
73 1 1
73 3 1
73 4 1
73 6 1
73 9 1
73 29 1
73 33 1
73 37 1
73 45 1
73 59 1
73 65 1
73 69 1
73 87 1
74 9 1
74 18 1
74 23 1
74 65 1
75 8 1
76 3 1
77 11 1
77 33 1
77 114 1
77 123 1
78 52 1
79 1 1
79 49 1
81 1 1
81 4 1
81 9 1
81 10 1
81 33 1
81 37 1
81 43 1
81 65 1
81 66 1
81 101 1
81 125 1
82 1 1
82 2 1
82 4 1
82 17 1
83 2 1
83 11 1
83 37 1
83 97 1
84 1 1
84 37 1
84 97 1
84 102 1
85 1 1
85 21 1
86 35 1
86 41 1
86 66 1
87 1 1
87 6 1
87 73 1
87 90 1
89 2 1
89 11 1
89 17 1
89 18 1
89 97 1
90 87 1
91 7 1
93 1 1
93 9 1
95 9 1
97 1 1
97 2 1
97 3 1
97 5 1
97 15 1
97 18 1
97 19 1
97 25 1
97 33 1
97 35 1
97 37 1
97 47 1
97 66 1
97 83 1
97 84 1
97 89 1
98 6 1
98 9 1
98 13 1
99 1 1
99 121 1
100 19 1
101 3 1
101 10 1
101 19 1
101 65 1
101 81 1
102 1 1
102 84 1
103 11 1
103 25 1
104 1 1
105 9 1
107 1 1
107 30 1
107 69 1
109 1 1
109 2 1
110 33 1
113 1 1
113 5 1
113 69 1
114 5 1
114 77 1
115 27 1
118 5 1
119 1 1
119 33 1
121 5 1
121 23 1
121 66 1
121 99 1
122 10 1
123 77 1
125 81 1
