%%MatrixMarket matrix coordinate real general
%
256 256 1490
1 2 1
1 3 1
1 4 1
1 5 1
1 6 1
1 7 1
1 9 1
1 10 1
1 11 1
1 12 1
1 13 1
1 14 1
1 15 1
1 16 1
1 17 1
1 18 1
1 19 1
1 20 1
1 21 1
1 31 1
1 32 1
1 33 1
1 34 1
1 35 1
1 36 1
1 37 1
1 40 1
1 41 1
1 49 1
1 50 1
1 53 1
1 55 1
1 57 1
1 62 1
1 65 1
1 66 1
1 69 1
1 72 1
1 73 1
1 75 1
1 76 1
1 79 1
1 81 1
1 82 1
1 83 1
1 85 1
1 87 1
1 97 1
1 99 1
1 101 1
1 106 1
1 115 1
1 117 1
1 129 1
1 130 1
1 131 1
1 133 1
1 134 1
1 135 1
1 136 1
1 137 1
1 138 1
1 139 1
1 146 1
1 147 1
1 150 1
1 153 1
1 160 1
1 161 1
1 162 1
1 166 1
1 170 1
1 176 1
1 177 1
1 181 1
1 185 1
1 187 1
1 193 1
1 194 1
1 197 1
1 201 1
1 209 1
1 225 1
1 226 1
1 233 1
1 242 1
1 243 1
1 245 1
2 1 1
2 3 1
2 4 1
2 5 1
2 9 1
2 14 1
2 17 1
2 19 1
2 21 1
2 25 1
2 26 1
2 27 1
2 29 1
2 33 1
2 34 1
2 36 1
2 41 1
2 42 1
2 49 1
2 51 1
2 55 1
2 61 1
2 65 1
2 67 1
2 68 1
2 74 1
2 75 1
2 77 1
2 79 1
2 82 1
2 83 1
2 89 1
2 97 1
2 106 1
2 124 1
2 129 1
2 130 1
2 131 1
2 133 1
2 138 1
2 139 1
2 141 1
2 143 1
2 146 1
2 161 1
2 162 1
2 165 1
2 193 1
2 233 1
3 1 1
3 2 1
3 4 1
3 5 1
3 6 1
3 9 1
3 11 1
3 17 1
3 19 1
3 22 1
3 25 1
3 29 1
3 32 1
3 33 1
3 34 1
3 35 1
3 65 1
3 66 1
3 67 1
3 69 1
3 70 1
3 74 1
3 105 1
3 129 1
3 130 1
3 131 1
3 132 1
3 133 1
3 134 1
3 137 1
3 138 1
3 162 1
3 163 1
3 169 1
3 193 1
3 194 1
3 203 1
3 242 1
4 1 1
4 2 1
4 3 1
4 9 1
4 13 1
4 25 1
4 33 1
4 35 1
4 37 1
4 38 1
4 43 1
4 47 1
4 53 1
4 54 1
4 74 1
4 75 1
4 87 1
4 129 1
4 133 1
4 161 1
4 193 1
4 197 1
5 1 1
5 2 1
5 3 1
5 9 1
5 13 1
5 14 1
5 16 1
5 17 1
5 18 1
5 19 1
5 21 1
5 25 1
5 29 1
5 34 1
5 37 1
5 41 1
5 42 1
5 48 1
5 61 1
5 66 1
5 78 1
5 81 1
5 86 1
5 107 1
5 129 1
5 134 1
5 137 1
5 139 1
5 140 1
5 141 1
5 147 1
5 155 1
5 177 1
5 180 1
5 193 1
5 196 1
5 198 1
5 205 1
5 226 1
6 1 1
6 3 1
6 9 1
6 18 1
6 27 1
6 39 1
6 43 1
6 50 1
6 51 1
6 65 1
6 74 1
6 89 1
6 98 1
6 129 1
6 130 1
6 131 1
6 149 1
6 153 1
6 157 1
6 171 1
7 1 1
7 9 1
7 11 1
7 17 1
7 35 1
7 40 1
7 89 1
7 106 1
7 121 1
7 129 1
7 145 1
8 13 1
8 25 1
8 114 1
8 135 1
8 145 1
8 166 1
8 193 1
9 1 1
9 2 1
9 3 1
9 4 1
9 5 1
9 6 1
9 7 1
9 10 1
9 12 1
9 13 1
9 15 1
9 17 1
9 18 1
9 23 1
9 24 1
9 25 1
9 27 1
9 33 1
9 34 1
9 45 1
9 54 1
9 65 1
9 67 1
9 72 1
9 73 1
9 77 1
9 81 1
9 97 1
9 99 1
9 113 1
9 129 1
9 130 1
9 132 1
9 133 1
9 135 1
9 137 1
9 141 1
9 145 1
9 147 1
9 161 1
9 163 1
9 166 1
9 178 1
9 193 1
9 194 1
9 198 1
9 225 1
10 1 1
10 9 1
10 17 1
10 19 1
10 33 1
10 65 1
10 66 1
10 67 1
10 71 1
10 89 1
10 129 1
10 135 1
10 136 1
10 154 1
10 173 1
10 194 1
11 1 1
11 3 1
11 7 1
11 18 1
11 19 1
11 35 1
11 65 1
11 66 1
11 69 1
11 71 1
11 97 1
11 111 1
11 129 1
11 153 1
11 163 1
11 177 1
11 195 1
12 1 1
12 9 1
12 35 1
12 65 1
12 131 1
13 1 1
13 4 1
13 5 1
13 8 1
13 9 1
13 19 1
13 33 1
13 39 1
13 41 1
13 50 1
13 81 1
13 83 1
13 214 1
13 225 1
14 1 1
14 2 1
14 5 1
14 73 1
14 77 1
14 109 1
14 138 1
15 1 1
15 9 1
15 17 1
15 162 1
16 1 1
16 5 1
16 105 1
17 1 1
17 2 1
17 3 1
17 5 1
17 7 1
17 9 1
17 10 1
17 15 1
17 18 1
17 23 1
17 25 1
17 33 1
17 34 1
17 35 1
17 37 1
17 39 1
17 41 1
17 45 1
17 65 1
17 66 1
17 67 1
17 69 1
17 85 1
17 99 1
17 113 1
17 129 1
17 131 1
17 133 1
17 137 1
17 139 1
17 145 1
17 146 1
17 153 1
17 163 1
17 193 1
17 201 1
17 203 1
18 1 1
18 5 1
18 6 1
18 9 1
18 11 1
18 17 1
18 25 1
18 29 1
18 33 1
18 37 1
18 41 1
18 45 1
18 49 1
18 66 1
18 71 1
18 87 1
18 94 1
18 97 1
18 145 1
19 1 1
19 2 1
19 3 1
19 5 1
19 10 1
19 11 1
19 13 1
19 25 1
19 37 1
19 61 1
19 65 1
19 75 1
19 105 1
19 129 1
19 134 1
19 135 1
19 197 1
19 225 1
19 249 1
20 1 1
20 74 1
20 130 1
20 133 1
20 165 1
20 193 1
21 1 1
21 2 1
21 5 1
21 35 1
21 37 1
21 38 1
21 66 1
21 69 1
21 73 1
21 74 1
21 83 1
21 129 1
21 131 1
21 137 1
21 201 1
22 3 1
22 25 1
22 37 1
22 49 1
22 71 1
22 129 1
22 203 1
23 9 1
23 17 1
23 41 1
23 65 1
23 129 1
23 131 1
24 9 1
24 66 1
24 129 1
25 2 1
25 3 1
25 4 1
25 5 1
25 8 1
25 9 1
25 17 1
25 18 1
25 19 1
25 22 1
25 29 1
25 33 1
25 39 1
25 55 1
25 70 1
25 97 1
25 129 1
25 131 1
25 162 1
25 169 1
25 197 1
25 209 1
26 2 1
26 38 1
26 66 1
26 106 1
26 114 1
26 129 1
26 166 1
26 177 1
27 2 1
27 6 1
27 9 1
27 33 1
27 38 1
27 65 1
27 84 1
27 97 1
27 129 1
28 34 1
28 129 1
29 2 1
29 3 1
29 5 1
29 18 1
29 25 1
29 70 1
29 145 1
29 169 1
29 217 1
30 130 1
30 139 1
30 201 1
31 1 1
31 68 1
32 1 1
32 3 1
33 1 1
33 2 1
33 3 1
33 4 1
33 9 1
33 10 1
33 13 1
33 17 1
33 18 1
33 25 1
33 27 1
33 39 1
33 41 1
33 44 1
33 49 1
33 53 1
33 57 1
33 62 1
33 65 1
33 67 1
33 75 1
33 80 1
33 114 1
33 117 1
33 129 1
33 130 1
33 131 1
33 133 1
33 135 1
33 137 1
33 141 1
33 148 1
33 151 1
33 153 1
33 161 1
33 164 1
33 171 1
33 193 1
33 194 1
33 201 1
33 221 1
33 241 1
34 1 1
34 2 1
34 3 1
34 5 1
34 9 1
34 17 1
34 28 1
34 37 1
34 65 1
34 129 1
34 133 1
34 141 1
34 161 1
34 201 1
34 209 1
35 1 1
35 3 1
35 4 1
35 7 1
35 11 1
35 12 1
35 17 1
35 21 1
35 53 1
35 65 1
35 69 1
35 76 1
35 82 1
35 109 1
35 130 1
35 133 1
35 145 1
36 1 1
36 2 1
36 37 1
36 65 1
36 76 1
36 77 1
37 1 1
37 4 1
37 5 1
37 17 1
37 18 1
37 19 1
37 21 1
37 22 1
37 34 1
37 36 1
37 65 1
37 71 1
37 84 1
37 130 1
37 145 1
37 148 1
37 168 1
38 4 1
38 21 1
38 26 1
38 27 1
38 129 1
39 6 1
39 13 1
39 17 1
39 25 1
39 33 1
39 65 1
40 1 1
40 7 1
41 1 1
41 2 1
41 5 1
41 13 1
41 17 1
41 18 1
41 23 1
41 33 1
41 42 1
41 82 1
41 97 1
41 101 1
41 145 1
41 147 1
41 159 1
41 169 1
41 193 1
42 2 1
42 5 1
42 41 1
42 49 1
42 101 1
42 163 1
42 170 1
43 4 1
43 6 1
43 145 1
43 149 1
44 33 1
44 68 1
44 93 1
44 133 1
45 9 1
45 17 1
45 18 1
45 137 1
45 145 1
47 4 1
47 139 1
48 5 1
49 1 1
49 2 1
49 18 1
49 22 1
49 33 1
49 42 1
49 97 1
49 110 1
49 129 1
49 135 1
49 138 1
49 151 1
49 156 1
49 162 1
49 201 1
50 1 1
50 6 1
50 13 1
50 133 1
50 138 1
51 2 1
51 6 1
51 91 1
51 109 1
53 1 1
53 4 1
53 33 1
53 35 1
53 65 1
54 4 1
54 9 1
54 139 1
55 1 1
55 2 1
55 25 1
55 113 1
55 129 1
56 133 1
57 1 1
57 33 1
57 65 1
57 73 1
57 131 1
57 151 1
57 209 1
57 227 1
59 81 1
59 82 1
60 209 1
61 2 1
61 5 1
61 19 1
61 73 1
61 161 1
62 1 1
62 33 1
62 65 1
65 1 1
65 2 1
65 3 1
65 6 1
65 9 1
65 10 1
65 11 1
65 12 1
65 17 1
65 19 1
65 23 1
65 27 1
65 33 1
65 34 1
65 35 1
65 36 1
65 37 1
65 39 1
65 53 1
65 57 1
65 62 1
65 69 1
65 73 1
65 78 1
65 84 1
65 97 1
65 99 1
65 101 1
65 102 1
65 117 1
65 129 1
65 130 1
65 133 1
65 135 1
65 137 1
65 146 1
65 156 1
65 161 1
65 162 1
65 163 1
65 167 1
65 178 1
65 187 1
65 217 1
65 225 1
65 226 1
66 1 1
66 3 1
66 5 1
66 10 1
66 11 1
66 17 1
66 18 1
66 21 1
66 24 1
66 26 1
66 69 1
66 73 1
66 81 1
66 83 1
66 114 1
66 122 1
66 129 1
66 137 1
66 163 1
66 171 1
66 221 1
66 231 1
67 2 1
67 3 1
67 9 1
67 10 1
67 17 1
67 33 1
67 69 1
67 93 1
67 145 1
67 153 1
68 2 1
68 31 1
68 44 1
68 87 1
68 133 1
69 1 1
69 3 1
69 11 1
69 17 1
69 21 1
69 35 1
69 65 1
69 66 1
69 67 1
69 72 1
69 73 1
69 124 1
69 129 1
69 133 1
69 145 1
69 206 1
70 3 1
70 25 1
70 29 1
70 102 1
70 129 1
70 193 1
71 10 1
71 11 1
71 18 1
71 22 1
71 37 1
71 97 1
71 129 1
71 145 1
71 161 1
72 1 1
72 9 1
72 69 1
72 99 1
72 165 1
73 1 1
73 9 1
73 14 1
73 21 1
73 57 1
73 61 1
73 65 1
73 66 1
73 69 1
73 77 1
73 129 1
73 130 1
73 165 1
73 171 1
73 201 1
73 246 1
74 2 1
74 3 1
74 4 1
74 6 1
74 20 1
74 21 1
74 129 1
74 132 1
74 133 1
74 153 1
75 1 1
75 2 1
75 4 1
75 19 1
75 33 1
75 81 1
75 97 1
75 133 1
75 135 1
75 199 1
76 1 1
76 35 1
76 36 1
77 2 1
77 9 1
77 14 1
77 36 1
77 73 1
77 145 1
78 5 1
78 65 1
79 1 1
79 2 1
80 33 1
81 1 1
81 5 1
81 9 1
81 13 1
81 59 1
81 66 1
81 75 1
81 92 1
81 129 1
81 131 1
81 133 1
81 136 1
81 142 1
81 147 1
81 165 1
81 181 1
82 1 1
82 2 1
82 35 1
82 41 1
82 59 1
82 85 1
82 101 1
82 147 1
82 213 1
82 225 1
83 1 1
83 2 1
83 13 1
83 21 1
83 66 1
83 129 1
84 27 1
84 37 1
84 65 1
85 1 1
85 17 1
85 82 1
85 203 1
86 5 1
87 1 1
87 4 1
87 18 1
87 68 1
87 105 1
89 2 1
89 6 1
89 7 1
89 10 1
89 102 1
89 135 1
89 145 1
91 51 1
91 133 1
91 153 1
91 194 1
92 81 1
93 44 1
93 67 1
94 18 1
97 1 1
97 2 1
97 9 1
97 11 1
97 18 1
97 25 1
97 27 1
97 41 1
97 49 1
97 65 1
97 71 1
97 75 1
97 129 1
97 134 1
97 140 1
97 145 1
97 161 1
97 165 1
97 181 1
98 6 1
98 153 1
98 196 1
99 1 1
99 9 1
99 17 1
99 65 1
99 72 1
99 129 1
99 133 1
100 179 1
101 1 1
101 41 1
101 42 1
101 65 1
101 82 1
101 129 1
101 145 1
101 227 1
102 65 1
102 70 1
102 89 1
105 3 1
105 16 1
105 19 1
105 87 1
106 1 1
106 2 1
106 7 1
106 26 1
106 145 1
107 5 1
107 131 1
109 14 1
109 35 1
109 51 1
110 49 1
111 11 1
113 9 1
113 17 1
113 55 1
113 129 1
114 8 1
114 26 1
114 33 1
114 66 1
115 1 1
116 162 1
117 1 1
117 33 1
117 65 1
121 7 1
122 66 1
124 2 1
124 69 1
125 137 1
129 1 1
129 2 1
129 3 1
129 4 1
129 5 1
129 6 1
129 7 1
129 9 1
129 10 1
129 11 1
129 17 1
129 19 1
129 21 1
129 22 1
129 23 1
129 24 1
129 25 1
129 26 1
129 27 1
129 28 1
129 33 1
129 34 1
129 38 1
129 49 1
129 55 1
129 65 1
129 66 1
129 69 1
129 70 1
129 71 1
129 73 1
129 74 1
129 81 1
129 83 1
129 97 1
129 99 1
129 101 1
129 113 1
129 137 1
129 141 1
129 147 1
129 169 1
129 193 1
129 194 1
129 204 1
129 216 1
130 1 1
130 2 1
130 3 1
130 6 1
130 9 1
130 20 1
130 30 1
130 33 1
130 35 1
130 37 1
130 65 1
130 73 1
130 133 1
130 149 1
130 162 1
130 174 1
131 1 1
131 2 1
131 3 1
131 6 1
131 12 1
131 17 1
131 21 1
131 23 1
131 25 1
131 33 1
131 57 1
131 81 1
131 107 1
131 137 1
131 161 1
131 201 1
131 209 1
132 3 1
132 9 1
132 74 1
132 163 1
133 1 1
133 2 1
133 3 1
133 4 1
133 9 1
133 17 1
133 20 1
133 33 1
133 34 1
133 35 1
133 44 1
133 50 1
133 56 1
133 65 1
133 68 1
133 69 1
133 74 1
133 75 1
133 81 1
133 91 1
133 99 1
133 130 1
133 135 1
133 137 1
133 149 1
133 153 1
133 161 1
133 193 1
134 1 1
134 3 1
134 5 1
134 19 1
134 97 1
135 1 1
135 8 1
135 9 1
135 10 1
135 19 1
135 33 1
135 49 1
135 65 1
135 75 1
135 89 1
135 133 1
135 226 1
136 1 1
136 10 1
136 81 1
137 1 1
137 3 1
137 5 1
137 9 1
137 17 1
137 21 1
137 33 1
137 45 1
137 65 1
137 66 1
137 125 1
137 129 1
137 131 1
137 133 1
137 141 1
137 152 1
137 177 1
138 1 1
138 2 1
138 3 1
138 14 1
138 49 1
138 50 1
138 145 1
138 195 1
139 1 1
139 2 1
139 5 1
139 17 1
139 30 1
139 47 1
139 54 1
139 149 1
139 161 1
140 5 1
140 97 1
141 2 1
141 5 1
141 9 1
141 33 1
141 34 1
141 129 1
141 137 1
141 243 1
142 81 1
143 2 1
145 7 1
145 8 1
145 9 1
145 17 1
145 18 1
145 29 1
145 35 1
145 37 1
145 41 1
145 43 1
145 45 1
145 67 1
145 69 1
145 71 1
145 77 1
145 89 1
145 97 1
145 101 1
145 106 1
145 138 1
145 161 1
145 187 1
146 1 1
146 2 1
146 17 1
146 65 1
147 1 1
147 5 1
147 9 1
147 41 1
147 81 1
147 82 1
147 129 1
147 207 1
148 33 1
148 37 1
149 6 1
149 43 1
149 130 1
149 133 1
149 139 1
150 1 1
151 33 1
151 49 1
151 57 1
152 137 1
153 1 1
153 6 1
153 11 1
153 17 1
153 33 1
153 67 1
153 74 1
153 91 1
153 98 1
153 133 1
153 185 1
154 10 1
155 5 1
156 49 1
156 65 1
157 6 1
157 241 1
159 41 1
159 193 1
160 1 1
161 1 1
161 2 1
161 4 1
161 9 1
161 33 1
161 34 1
161 61 1
161 65 1
161 71 1
161 97 1
161 131 1
161 133 1
161 139 1
161 145 1
161 193 1
162 1 1
162 2 1
162 3 1
162 15 1
162 25 1
162 49 1
162 65 1
162 116 1
162 130 1
162 201 1
163 3 1
163 9 1
163 11 1
163 17 1
163 42 1
163 65 1
163 66 1
163 132 1
164 33 1
165 2 1
165 20 1
165 72 1
165 73 1
165 81 1
165 97 1
166 1 1
166 8 1
166 9 1
166 26 1
167 65 1
167 201 1
168 37 1
168 193 1
169 3 1
169 25 1
169 29 1
169 41 1
169 129 1
169 209 1
170 1 1
170 42 1
171 6 1
171 33 1
171 66 1
171 73 1
171 221 1
173 10 1
174 130 1
176 1 1
177 1 1
177 5 1
177 11 1
177 26 1
177 137 1
178 9 1
178 65 1
179 100 1
180 5 1
181 1 1
181 81 1
181 97 1
182 213 1
185 1 1
185 153 1
187 1 1
187 65 1
187 145 1
193 1 1
193 2 1
193 3 1
193 4 1
193 5 1
193 8 1
193 9 1
193 17 1
193 20 1
193 33 1
193 41 1
193 70 1
193 129 1
193 133 1
193 159 1
193 161 1
193 168 1
194 1 1
194 3 1
194 9 1
194 10 1
194 33 1
194 91 1
194 129 1
195 11 1
195 138 1
196 5 1
196 98 1
197 1 1
197 4 1
197 19 1
197 25 1
198 5 1
198 9 1
198 236 1
199 75 1
201 1 1
201 17 1
201 21 1
201 30 1
201 33 1
201 34 1
201 49 1
201 73 1
201 131 1
201 162 1
201 167 1
203 3 1
203 17 1
203 22 1
203 85 1
204 129 1
205 5 1
206 69 1
207 147 1
209 1 1
209 25 1
209 34 1
209 57 1
209 60 1
209 131 1
209 169 1
210 238 1
213 82 1
213 182 1
214 13 1
216 129 1
217 29 1
217 65 1
221 33 1
221 66 1
221 171 1
225 1 1
225 9 1
225 13 1
225 19 1
225 65 1
225 82 1
226 1 1
226 5 1
226 65 1
226 135 1
227 57 1
227 101 1
231 66 1
233 1 1
233 2 1
236 198 1
238 210 1
241 33 1
241 157 1
242 1 1
242 3 1
243 1 1
243 141 1
245 1 1
246 73 1
249 19 1
