%%MatrixMarket matrix coordinate real symmetric
%
32 32 76
2 1 1
3 1 1
3 2 1
4 3 1
5 1 1
5 3 1
5 4 1
6 1 1
6 2 1
6 3 1
7 2 1
7 3 1
8 1 1
9 1 1
9 2 1
9 3 1
9 5 1
9 7 1
10 5 1
10 9 1
11 1 1
11 2 1
11 3 1
11 5 1
11 9 1
12 1 1
13 1 1
13 11 1
14 3 1
14 5 1
15 1 1
15 2 1
15 9 1
17 1 1
17 2 1
17 3 1
17 5 1
17 7 1
17 8 1
17 10 1
17 14 1
18 1 1
18 3 1
18 9 1
18 17 1
19 1 1
19 9 1
19 10 1
19 11 1
19 13 1
19 16 1
21 2 1
21 3 1
21 5 1
21 6 1
21 7 1
21 17 1
22 5 1
22 9 1
23 1 1
23 9 1
23 19 1
24 1 1
25 2 1
25 3 1
25 17 1
26 1 1
26 9 1
27 9 1
27 18 1
27 22 1
29 3 1
29 5 1
30 11 1
31 1 1
31 17 1
