%%MatrixMarket matrix coordinate real symmetric
%
64 64 165
2 1 1
3 1 1
3 2 1
4 3 1
5 1 1
5 2 1
5 3 1
6 1 1
6 2 1
6 3 1
7 2 1
7 4 1
8 4 1
9 1 1
9 3 1
9 4 1
9 8 1
10 1 1
10 2 1
10 5 1
10 6 1
10 8 1
11 2 1
11 5 1
11 8 1
12 1 1
12 7 1
12 9 1
13 1 1
13 3 1
13 5 1
13 9 1
14 1 1
16 13 1
17 1 1
17 2 1
17 3 1
17 5 1
17 6 1
17 9 1
17 11 1
17 13 1
18 1 1
18 4 1
18 9 1
18 11 1
19 1 1
19 5 1
19 9 1
19 14 1
21 1 1
21 3 1
23 10 1
24 13 1
25 1 1
25 2 1
25 5 1
25 7 1
25 23 1
26 1 1
26 3 1
26 5 1
26 17 1
26 25 1
28 9 1
29 3 1
30 3 1
30 9 1
31 5 1
33 1 1
33 3 1
33 4 1
33 5 1
33 6 1
33 7 1
33 9 1
33 10 1
33 11 1
33 12 1
33 13 1
33 17 1
33 18 1
33 19 1
33 24 1
33 25 1
33 27 1
34 2 1
34 10 1
34 13 1
34 18 1
34 23 1
34 29 1
34 30 1
35 1 1
35 14 1
35 17 1
35 33 1
36 2 1
36 3 1
36 5 1
36 17 1
36 21 1
37 3 1
37 11 1
37 17 1
37 25 1
38 1 1
38 3 1
38 19 1
38 33 1
38 34 1
39 9 1
39 10 1
41 1 1
41 2 1
41 5 1
41 6 1
41 9 1
41 17 1
41 33 1
41 38 1
42 3 1
42 35 1
43 17 1
43 33 1
44 1 1
44 34 1
45 1 1
45 2 1
45 4 1
45 9 1
46 6 1
46 25 1
49 1 1
49 2 1
49 3 1
49 4 1
49 13 1
49 16 1
49 18 1
49 24 1
49 33 1
49 34 1
49 37 1
50 1 1
50 13 1
50 20 1
50 29 1
51 17 1
51 42 1
52 1 1
52 47 1
56 1 1
56 21 1
57 3 1
57 7 1
57 19 1
58 5 1
58 34 1
59 49 1
61 1 1
61 26 1
62 1 1
62 2 1
63 18 1
