%%MatrixMarket matrix coordinate real general
4096 4096 28666
1 2050 1
1 2049 1
1 3591 1
1 3074 1
1 2566 1
1 1030 1
1 38 1
1 3073 1
1 2 1
1 1542 1
1 1053 1
1 2571 1
1 3617 1
1 3586 1
1 1541 1
1 3 1
1 2595 1
1 7 1
1 2585 1
1 1545 1
1 3621 1
1 525 1
1 533 1
1 3173 1
1 2091 1
1 1538 1
1 3592 1
1 3077 1
1 14 1
1 523 1
1 3608 1
1 3079 1
1 534 1
1 2082 1
1 3100 1
1 1574 1
1 2572 1
1 1073 1
1 2619 1
1 3084 1
1 1537 1
1 516 1
1 3078 1
1 514 1
1 3109 1
1 1052 1
1 3075 1
1 3604 1
1 526 1
1 2563 1
1 3086 1
1 3108 1
1 547 1
1 2656 1
1 86 1
1 3652 1
1 925 1
1 518 1
1 1754 1
1 26 1
1 208 1
1 3087 1
1 2601 1
1 1077 1
1 3149 1
1 2692 1
1 117 1
1 750 1
1 1026 1
1 2564 1
1 2569 1
1 2588 1
1 1544 1
1 1062 1
1 521 1
1 543 1
1 3097 1
1 3619 1
1 1539 1
1 2059 1
1 2073 1
1 3263 1
1 5 1
1 2070 1
1 1548 1
1 2155 1
1 17 1
1 1683 1
1 539 1
1 3122 1
1 1109 1
1 212 1
1 137 1
1 1041 1
1 870 1
1 998 1
1 3081 1
1 16 1
1 41 1
1 2609 1
1 2589 1
1 1644 1
1 3595 1
1 3677 1
1 1209 1
1 537 1
1 2634 1
1 1025 1
1 3080 1
1 2054 1
1 34 1
1 1543 1
1 22 1
1 2109 1
1 3588 1
1 1055 1
1 1049 1
1 3637 1
1 1043 1
1 1569 1
1 2051 1
1 2593 1
1 1567 1
1 1651 1
1 535 1
1 1546 1
1 531 1
1 3601 1
1 3671 1
1 3618 1
1 2578 1
1 2094 1
1 2844 1
1 1040 1
1 3273 1
1 992 1
1 1033 1
1 2069 1
1 1566 1
1 67 1
1 8 1
1 2121 1
1 2122 1
1 1230 1
1 3611 1
1 143 1
1 1141 1
1 3115 1
1 1655 1
1 24 1
1 68 1
1 2125 1
1 2663 1
1 2198 1
1 520 1
1 2074 1
1 2580 1
1 2075 1
1 1654 1
1 1553 1
1 2115 1
1 1105 1
1 1949 1
1 2076 1
1 2648 1
1 3178 1
1 2211 1
1 3204 1
1 1071 1
1 3664 1
1 1139 1
1 1096 1
1 1643 1
1 741 1
1 3337 1
1 513 1
1 2055 1
1 2568 1
1 3082 1
1 39 1
1 1568 1
1 3076 1
1 3090 1
1 31 1
1 3598 1
1 2126 1
1 2098 1
1 519 1
1 32 1
1 1046 1
1 1590 1
1 3603 1
1 1592 1
1 2066 1
1 2596 1
1 2562 1
1 3102 1
1 12 1
1 2086 1
1 3645 1
1 3106 1
1 3616 1
1 1072 1
1 1127 1
1 207 1
1 1176 1
1 3257 1
1 1027 1
1 11 1
1 532 1
1 3606 1
1 2151 1
1 2064 1
1 48 1
1 3662 1
1 2603 1
1 3118 1
1 3120 1
1 868 1
1 1790 1
1 2057 1
1 3096 1
1 536 1
1 1107 1
1 1034 1
1 1103 1
1 1561 1
1 2615 1
1 30 1
1 2624 1
1 3148 1
1 3184 1
1 1610 1
1 3083 1
1 3134 1
1 50 1
1 142 1
1 913 1
1 2177 1
1 3280 1
1 3241 1
1 3150 1
1 75 1
1 2727 1
1 76 1
1 882 1
1 885 1
1 515 1
1 10 1
1 3088 1
1 2164 1
1 2067 1
1 3126 1
1 3614 1
1 3145 1
1 1111 1
1 2582 1
1 1244 1
1 2152 1
1 1674 1
1 1087 1
1 125 1
1 56 1
1 2702 1
1 1135 1
1 1042 1
1 89 1
1 1759 1
1 18 1
1 62 1
1 2773 1
1 2223 1
1 2226 1
1 71 1
1 1212 1
1 166 1
1 906 1
1 3585 1
1 524 1
1 517 1
1 2570 1
1 541 1
1 2106 1
1 522 1
1 2072 1
1 1148 1
1 1029 1
1 2586 1
1 3602 1
1 1557 1
1 2105 1
1 1563 1
1 2650 1
1 1819 1
1 2056 1
1 3609 1
1 3135 1
1 1059 1
1 3661 1
1 2594 1
1 935 1
1 3657 1
1 3274 1
1 3101 1
1 1630 1
1 1612 1
1 2221 1
1 2259 1
1 6 1
1 2079 1
1 2087 1
1 23 1
1 1661 1
1 36 1
1 3113 1
1 770 1
1 2071 1
1 1613 1
1 179 1
1 3622 1
1 3141 1
1 1584 1
1 606 1
1 803 1
1 3594 1
1 1045 1
1 21 1
1 1614 1
1 1579 1
1 1556 1
1 1132 1
1 3596 1
1 3136 1
1 1580 1
1 33 1
1 578 1
1 2704 1
1 2085 1
1 219 1
1 797 1
1 3334 1
1 2053 1
1 1036 1
1 3085 1
1 1110 1
1 1078 1
1 3111 1
1 1616 1
1 1617 1
1 605 1
1 781 1
1 1560 1
1 2100 1
1 3209 1
1 2684 1
1 1588 1
1 2176 1
1 597 1
1 1061 1
1 2108 1
1 1620 1
1 2212 1
1 2337 1
1 1037 1
1 1081 1
1 2104 1
1 3673 1
1 1119 1
1 794 1
1 3132 1
1 1577 1
1 2148 1
1 3272 1
1 1228 1
1 3329 1
1 1594 1
1 3642 1
1 1718 1
1 955 1
1 3590 1
1 2587 1
1 3629 1
1 1554 1
1 1083 1
1 1092 1
1 1098 1
1 527 1
1 45 1
1 3117 1
1 1090 1
1 2207 1
1 1225 1
1 2576 1
1 2206 1
1 2721 1
1 37 1
1 2633 1
1 3180 1
1 618 1
1 1684 1
1 2762 1
1 2060 1
1 2200 1
1 1075 1
1 169 1
1 1095 1
1 276 1
1 3346 1
1 1667 1
1 2759 1
1 15 1
1 2133 1
1 2242 1
1 625 1
1 2127 1
1 3681 1
1 650 1
1 1964 1
1 1944 1
1 2096 1
1 1961 1
1 2747 1
1 1892 1
1 730 1
1 701 1
1 2561 1
1 1031 1
1 1032 1
1 1558 1
1 3587 1
1 2068 1
1 1028 1
1 530 1
1 2626 1
1 2567 1
1 2081 1
1 542 1
1 3091 1
1 2283 1
1 1051 1
1 2565 1
1 1122 1
1 2602 1
1 1057 1
1 1068 1
1 2052 1
1 25 1
1 2584 1
1 3176 1
1 2575 1
1 1636 1
1 1549 1
1 1656 1
1 165 1
1 3128 1
1 529 1
1 1570 1
1 1637 1
1 3129 1
1 3203 1
1 1117 1
1 3589 1
1 1060 1
1 3613 1
1 1638 1
1 1050 1
1 3155 1
1 2197 1
1 3254 1
1 3200 1
1 2592 1
1 2768 1
1 2700 1
1 1189 1
1 2172 1
1 2736 1
1 2063 1
1 2088 1
1 970 1
1 2770 1
1 1066 1
1 548 1
1 3228 1
1 2614 1
1 667 1
1 2319 1
1 3626 1
1 1238 1
1 596 1
1 4 1
1 2574 1
1 1054 1
1 1626 1
1 83 1
1 699 1
1 1550 1
1 61 1
1 2061 1
1 3095 1
1 2149 1
1 1166 1
1 3630 1
1 2195 1
1 1084 1
1 2636 1
1 1552 1
1 2102 1
1 1597 1
1 2629 1
1 559 1
1 3634 1
1 1598 1
1 3307 1
1 3267 1
1 1283 1
1 3593 1
1 1047 1
1 3600 1
1 2579 1
1 3674 1
1 1133 1
1 1124 1
1 93 1
1 1600 1
1 3248 1
1 3112 1
1 1601 1
1 2101 1
1 1056 1
1 3638 1
1 2647 1
1 119 1
1 2818 1
1 2577 1
1 1104 1
1 44 1
1 148 1
1 1297 1
1 1170 1
1 267 1
1 2605 1
1 3658 1
1 133 1
1 2625 1
1 3317 1
1 58 1
1 2798 1
1 164 1
1 2842 1
1 3320 1
1 218 1
1 264 1
1 1064 1
1 1575 1
1 1067 1
1 2687 1
1 931 1
1 2675 1
1 3146 1
1 43 1
1 993 1
1 979 1
1 3215 1
1 1692 1
1 1261 1
1 1241 1
1 1540 1
1 3623 1
1 1604 1
1 3089 1
1 3647 1
1 1595 1
1 3220 1
1 159 1
1 2651 1
1 3635 1
1 1125 1
1 1123 1
1 1585 1
1 1185 1
1 549 1
1 1589 1
1 84 1
1 213 1
1 1074 1
1 2203 1
1 1606 1
1 2252 1
1 3160 1
1 3116 1
1 3610 1
1 3124 1
1 2608 1
1 3177 1
1 773 1
1 1144 1
1 2157 1
1 934 1
1 144 1
1 2202 1
1 2751 1
1 1267 1
1 1687 1
1 994 1
1 722 1
1 2281 1
1 80 1
1 1572 1
1 134 1
1 2742 1
1 2178 1
1 203 1
1 710 1
1 3218 1
1 2739 1
1 1708 1
1 1173 1
1 2147 1
1 802 1
1 3278 1
1 1190 1
2050 1 1
2050 2049 1
2050 3591 1
2050 3074 1
2050 2566 1
2050 1030 1
2050 3073 1
2050 2 1
2050 1542 1
2050 2571 1
2050 3586 1
2050 1541 1
2050 3 1
2050 7 1
2050 525 1
2050 2103 1
2050 1538 1
2050 3592 1
2050 3077 1
2050 523 1
2050 2591 1
2050 3608 1
2050 63 1
2050 534 1
2050 3100 1
2050 3084 1
2050 1537 1
2050 2062 1
2050 514 1
2050 1085 1
2050 3075 1
2050 2563 1
2050 547 1
2050 2606 1
2050 518 1
2050 2077 1
2050 3087 1
2050 1026 1
2050 2569 1
2050 1544 1
2050 3103 1
2050 521 1
2050 3097 1
2050 3119 1
2050 1539 1
2050 2059 1
2050 2073 1
2050 3599 1
2050 5 1
2050 1683 1
2050 3081 1
2050 16 1
2050 3138 1
2050 3595 1
2050 2661 1
2050 956 1
2050 1025 1
2050 1543 1
2050 28 1
2050 3588 1
2050 1142 1
2050 2051 1
2050 2593 1
2050 1546 1
2050 2118 1
2050 1033 1
2050 1566 1
2050 2122 1
2050 1141 1
2050 1655 1
2050 24 1
2050 3245 1
2050 520 1
2050 2074 1
2050 2115 1
2050 3105 1
2050 1105 1
2050 3223 1
2050 2076 1
2050 587 1
2050 513 1
2050 2055 1
2050 2568 1
2050 3082 1
2050 39 1
2050 519 1
2050 3102 1
2050 3645 1
2050 55 1
2050 1027 1
2050 528 1
2050 2064 1
2050 2114 1
2050 2278 1
2050 2057 1
2050 3096 1
2050 1107 1
2050 1034 1
2050 1789 1
2050 3083 1
2050 211 1
2050 1203 1
2050 864 1
2050 75 1
2050 515 1
2050 10 1
2050 3088 1
2050 3614 1
2050 2582 1
2050 2153 1
2050 1555 1
2050 56 1
2050 1745 1
2050 2255 1
2050 18 1
2050 3163 1
2050 3585 1
2050 524 1
2050 2570 1
2050 522 1
2050 1038 1
2050 2072 1
2050 1029 1
2050 1557 1
2050 2105 1
2050 2056 1
2050 85 1
2050 3627 1
2050 1612 1
2050 6 1
2050 2079 1
2050 2087 1
2050 3113 1
2050 1613 1
2050 777 1
2050 3622 1
2050 3141 1
2050 829 1
2050 3594 1
2050 1044 1
2050 1045 1
2050 3625 1
2050 3596 1
2050 3158 1
2050 578 1
2050 2085 1
2050 1036 1
2050 1617 1
2050 1560 1
2050 2684 1
2050 1037 1
2050 3673 1
2050 2876 1
2050 3590 1
2050 2587 1
2050 1035 1
2050 2611 1
2050 858 1
2050 2667 1
2050 2703 1
2050 3195 1
2050 2882 1
2050 175 1
2050 3666 1
2050 1625 1
2050 2127 1
2050 2795 1
2050 574 1
2050 2096 1
2050 2561 1
2050 1031 1
2050 1032 1
2050 1558 1
2050 3587 1
2050 1028 1
2050 545 1
2050 2567 1
2050 2081 1
2050 542 1
2050 60 1
2050 3091 1
2050 1051 1
2050 2565 1
2050 2616 1
2050 2166 1
2050 1057 1
2050 2052 1
2050 3670 1
2050 1020 1
2050 631 1
2050 529 1
2050 3613 1
2050 1050 1
2050 3643 1
2050 3260 1
2050 3175 1
2050 2697 1
2050 2304 1
2050 567 1
2050 1550 1
2050 2117 1
2050 2061 1
2050 2623 1
2050 1678 1
2050 1294 1
2050 2149 1
2050 94 1
2050 692 1
2050 1552 1
2050 1597 1
2050 196 1
2050 190 1
2050 2758 1
2050 3593 1
2050 3600 1
2050 3112 1
2050 1601 1
2050 3668 1
2050 3638 1
2050 2657 1
2050 2812 1
2050 2577 1
2050 1089 1
2050 40 1
2050 2284 1
2050 3189 1
2050 1171 1
2050 1575 1
2050 2268 1
2050 1540 1
2050 1058 1
2050 35 1
2050 3089 1
2050 3130 1
2050 2276 1
2050 1599 1
2050 2651 1
2050 1125 1
2050 136 1
2050 228 1
2050 3110 1
2050 2251 1
2050 3217 1
2050 2744 1
2050 3186 1
2050 144 1
2050 683 1
2050 1926 1
2050 1611 1
2050 760 1
2050 1822 1
2049 1 1
2049 2050 1
2049 3591 1
2049 3074 1
2049 2566 1
2049 1030 1
2049 38 1
2049 3073 1
2049 2 1
2049 1542 1
2049 1053 1
2049 3617 1
2049 3586 1
2049 1541 1
2049 3 1
2049 7 1
2049 2091 1
2049 1538 1
2049 3592 1
2049 3077 1
2049 14 1
2049 523 1
2049 2591 1
2049 63 1
2049 3079 1
2049 2082 1
2049 3648 1
2049 2572 1
2049 2619 1
2049 3084 1
2049 1537 1
2049 516 1
2049 3078 1
2049 514 1
2049 3109 1
2049 1564 1
2049 1670 1
2049 2563 1
2049 3108 1
2049 1649 1
2049 3615 1
2049 518 1
2049 1559 1
2049 26 1
2049 3087 1
2049 2779 1
2049 1079 1
2049 1026 1
2049 2564 1
2049 2588 1
2049 1544 1
2049 1062 1
2049 3103 1
2049 3097 1
2049 1539 1
2049 2581 1
2049 5 1
2049 3122 1
2049 1041 1
2049 3641 1
2049 2669 1
2049 1565 1
2049 41 1
2049 2631 1
2049 2589 1
2049 3595 1
2049 2634 1
2049 546 1
2049 1126 1
2049 185 1
2049 1025 1
2049 3080 1
2049 1543 1
2049 22 1
2049 3588 1
2049 1055 1
2049 2051 1
2049 2590 1
2049 535 1
2049 2627 1
2049 1546 1
2049 3601 1
2049 3631 1
2049 2260 1
2049 8 1
2049 3611 1
2049 3620 1
2049 1691 1
2049 2074 1
2049 77 1
2049 2134 1
2049 2076 1
2049 3667 1
2049 3178 1
2049 1071 1
2049 2754 1
2049 3104 1
2049 513 1
2049 2568 1
2049 2083 1
2049 3082 1
2049 3076 1
2049 3598 1
2049 519 1
2049 1046 1
2049 2113 1
2049 2066 1
2049 2596 1
2049 2562 1
2049 2612 1
2049 3616 1
2049 1072 1
2049 1027 1
2049 11 1
2049 3606 1
2049 528 1
2049 96 1
2049 1562 1
2049 3120 1
2049 2278 1
2049 2057 1
2049 536 1
2049 1103 1
2049 1561 1
2049 2615 1
2049 2639 1
2049 1203 1
2049 2065 1
2049 1774 1
2049 65 1
2049 1802 1
2049 515 1
2049 10 1
2049 3614 1
2049 3651 1
2049 2146 1
2049 2226 1
2049 962 1
2049 3585 1
2049 524 1
2049 517 1
2049 2570 1
2049 20 1
2049 2106 1
2049 522 1
2049 1029 1
2049 2586 1
2049 2056 1
2049 6 1
2049 2079 1
2049 2618 1
2049 120 1
2049 1044 1
2049 21 1
2049 3123 1
2049 1578 1
2049 130 1
2049 3596 1
2049 33 1
2049 3125 1
2049 1729 1
2049 2085 1
2049 854 1
2049 1036 1
2049 3085 1
2049 2628 1
2049 1078 1
2049 3111 1
2049 3209 1
2049 2108 1
2049 1619 1
2049 1620 1
2049 1037 1
2049 2104 1
2049 735 1
2049 3099 1
2049 2099 1
2049 1163 1
2049 3642 1
2049 3590 1
2049 2587 1
2049 1035 1
2049 1083 1
2049 1098 1
2049 527 1
2049 2666 1
2049 2165 1
2049 1689 1
2049 1722 1
2049 37 1
2049 2107 1
2049 1627 1
2049 660 1
2049 15 1
2049 607 1
2049 1972 1
2049 2561 1
2049 1031 1
2049 1032 1
2049 1558 1
2049 3587 1
2049 1028 1
2049 545 1
2049 2567 1
2049 2081 1
2049 542 1
2049 60 1
2049 3091 1
2049 2630 1
2049 2565 1
2049 3605 1
2049 25 1
2049 2575 1
2049 1549 1
2049 3128 1
2049 1117 1
2049 3589 1
2049 1060 1
2049 19 1
2049 88 1
2049 1080 1
2049 2614 1
2049 3175 1
2049 2830 1
2049 4 1
2049 2574 1
2049 3092 1
2049 1054 1
2049 83 1
2049 1550 1
2049 3269 1
2049 2636 1
2049 682 1
2049 2629 1
2049 2757 1
2049 1598 1
2049 3593 1
2049 538 1
2049 177 1
2049 965 1
2049 1056 1
2049 2577 1
2049 1104 1
2049 2597 1
2049 161 1
2049 1171 1
2049 805 1
2049 2778 1
2049 3146 1
2049 1210 1
2049 2775 1
2049 1540 1
2049 1058 1
2049 35 1
2049 1065 1
2049 2111 1
2049 540 1
2049 549 1
2049 213 1
2049 3137 1
2049 3116 1
2049 1298 1
2049 2608 1
2049 3186 1
2049 2645 1
2049 1274 1
2049 3192 1
2049 974 1
2049 3179 1
2049 134 1
2049 2089 1
2049 562 1
2049 725 1
2049 754 1
3591 1 1
3591 2050 1
3591 2049 1
3591 3074 1
3591 1030 1
3591 1542 1
3591 2571 1
3591 3617 1
3591 3586 1
3591 1541 1
3591 3 1
3591 1538 1
3591 3608 1
3591 3079 1
3591 3100 1
3591 2572 1
3591 1537 1
3591 2062 1
3591 1564 1
3591 3624 1
3591 1026 1
3591 521 1
3591 3619 1
3591 1573 1
3591 1539 1
3591 2073 1
3591 5 1
3591 17 1
3591 3653 1
3591 539 1
3591 3081 1
3591 16 1
3591 3675 1
3591 1025 1
3591 2054 1
3591 3588 1
3591 1049 1
3591 535 1
3591 1040 1
3591 1033 1
3591 2075 1
3591 3105 1
3591 3603 1
3591 2144 1
3591 1027 1
3591 1562 1
3591 3202 1
3591 2065 1
3591 3170 1
3591 1770 1
3591 828 1
3591 2223 1
3591 3585 1
3591 517 1
3591 2570 1
3591 20 1
3591 522 1
3591 1029 1
3591 2056 1
3591 2087 1
3591 3251 1
3591 1100 1
3591 3594 1
3591 1045 1
3591 1664 1
3591 838 1
3591 2053 1
3591 1081 1
3591 552 1
3591 2148 1
3591 3117 1
3591 1070 1
3591 175 1
3591 2561 1
3591 1547 1
3591 3093 1
3591 2567 1
3591 29 1
3591 2052 1
3591 25 1
3591 2700 1
3591 4 1
3591 2136 1
3591 3112 1
3591 2101 1
3591 3638 1
3591 2657 1
3591 2577 1
3591 126 1
3591 40 1
3591 603 1
3591 79 1
3591 3137 1
3591 2635 1
3591 3151 1
3591 690 1
3591 2695 1
3591 3597 1
3591 1935 1
3591 3262 1
1026 1 1
1026 2050 1
1026 2049 1
1026 3591 1
1026 2566 1
1026 1030 1
1026 3073 1
1026 2 1
1026 1542 1
1026 1053 1
1026 2571 1
1026 27 1
1026 3586 1
1026 1541 1
1026 2595 1
1026 7 1
1026 2078 1
1026 3621 1
1026 1538 1
1026 3592 1
1026 3077 1
1026 3608 1
1026 3079 1
1026 534 1
1026 2082 1
1026 3100 1
1026 3084 1
1026 1537 1
1026 516 1
1026 3078 1
1026 514 1
1026 1052 1
1026 1085 1
1026 3075 1
1026 3604 1
1026 1564 1
1026 2563 1
1026 518 1
1026 1551 1
1026 2680 1
1026 3087 1
1026 1026 1
1026 2564 1
1026 2569 1
1026 1544 1
1026 1062 1
1026 521 1
1026 543 1
1026 1539 1
1026 2059 1
1026 5 1
1026 1109 1
1026 2669 1
1026 2781 1
1026 3081 1
1026 2609 1
1026 2175 1
1026 3595 1
1026 1669 1
1026 1126 1
1026 3633 1
1026 1025 1
1026 3080 1
1026 2054 1
1026 28 1
1026 3588 1
1026 1049 1
1026 2051 1
1026 2590 1
1026 2593 1
1026 81 1
1026 1546 1
1026 531 1
1026 3601 1
1026 3618 1
1026 1033 1
1026 2069 1
1026 8 1
1026 3611 1
1026 520 1
1026 2580 1
1026 77 1
1026 1553 1
1026 3286 1
1026 116 1
1026 3190 1
1026 743 1
1026 755 1
1026 513 1
1026 2055 1
1026 2568 1
1026 2083 1
1026 3076 1
1026 3090 1
1026 519 1
1026 32 1
1026 3603 1
1026 2066 1
1026 2562 1
1026 3106 1
1026 3678 1
1026 1027 1
1026 11 1
1026 3606 1
1026 528 1
1026 1562 1
1026 1034 1
1026 1561 1
1026 1088 1
1026 3148 1
1026 1773 1
1026 2065 1
1026 65 1
1026 2214 1
1026 887 1
1026 515 1
1026 3614 1
1026 2582 1
1026 1135 1
1026 1743 1
1026 556 1
1026 138 1
1026 789 1
1026 18 1
1026 1231 1
1026 1846 1
1026 1137 1
1026 1866 1
1026 3585 1
1026 524 1
1026 522 1
1026 1029 1
1026 2586 1
1026 3602 1
1026 1557 1
1026 2056 1
1026 3609 1
1026 6 1
1026 2087 1
1026 112 1
1026 3141 1
1026 21 1
1026 1579 1
1026 1132 1
1026 3596 1
1026 561 1
1026 571 1
1026 851 1
1026 1036 1
1026 3085 1
1026 1110 1
1026 3111 1
1026 1616 1
1026 2212 1
1026 2150 1
1026 3099 1
1026 2099 1
1026 3272 1
1026 3642 1
1026 1706 1
1026 1035 1
1026 3629 1
1026 2611 1
1026 2141 1
1026 3117 1
1026 1730 1
1026 2097 1
1026 2158 1
1026 2130 1
1026 2096 1
1026 1921 1
1026 2561 1
1026 1032 1
1026 3587 1
1026 1547 1
1026 1028 1
1026 2567 1
1026 542 1
1026 3181 1
1026 2565 1
1026 1039 1
1026 1122 1
1026 1057 1
1026 3639 1
1026 1634 1
1026 2575 1
1026 1549 1
1026 3128 1
1026 529 1
1026 2788 1
1026 1060 1
1026 1639 1
1026 2592 1
1026 3643 1
1026 2112 1
1026 2772 1
1026 3626 1
1026 596 1
1026 3676 1
1026 3098 1
1026 83 1
1026 1288 1
1026 1116 1
1026 3095 1
1026 1552 1
1026 2629 1
1026 3306 1
1026 1047 1
1026 551 1
1026 1056 1
1026 1602 1
1026 2597 1
1026 3309 1
1026 2733 1
1026 220 1
1026 1540 1
1026 3089 1
1026 1065 1
1026 1599 1
1026 1185 1
1026 9 1
1026 3628 1
1026 2201 1
1026 2250 1
1026 975 1
1026 1165 1
1026 3124 1
1026 2608 1
1026 2635 1
1026 959 1
1026 3192 1
1026 1968 1
1026 3597 1
1026 206 1
1026 1181 1
1026 1919 1
1026 2739 1
1026 957 1
1026 1190 1
2564 1 1
2564 2050 1
2564 2049 1
2564 3074 1
2564 1030 1
2564 3073 1
2564 2 1
2564 3586 1
2564 2595 1
2564 7 1
2564 2078 1
2564 3153 1
2564 2091 1
2564 1538 1
2564 3077 1
2564 3079 1
2564 2082 1
2564 3648 1
2564 1537 1
2564 514 1
2564 3075 1
2564 518 1
2564 2601 1
2564 1026 1
2564 1544 1
2564 2059 1
2564 3599 1
2564 1548 1
2564 3127 1
2564 3081 1
2564 2054 1
2564 28 1
2564 1049 1
2564 3601 1
2564 8 1
2564 3620 1
2564 3632 1
2564 3115 1
2564 1655 1
2564 520 1
2564 2074 1
2564 74 1
2564 3104 1
2564 830 1
2564 513 1
2564 2055 1
2564 3603 1
2564 1592 1
2564 2064 1
2564 3662 1
2564 1562 1
2564 1192 1
2564 2057 1
2564 1107 1
2564 2615 1
2564 30 1
2564 2624 1
2564 92 1
2564 515 1
2564 10 1
2564 2110 1
2564 2582 1
2564 3651 1
2564 2120 1
2564 1633 1
2564 1768 1
2564 18 1
2564 71 1
2564 517 1
2564 2570 1
2564 2573 1
2564 3602 1
2564 2599 1
2564 3166 1
2564 1583 1
2564 2628 1
2564 1061 1
2564 1619 1
2564 3266 1
2564 527 1
2564 2060 1
2564 2133 1
2564 652 1
2564 2561 1
2564 1031 1
2564 1558 1
2564 3587 1
2564 1028 1
2564 2567 1
2564 1051 1
2564 1608 1
2564 1060 1
2564 3613 1
2564 64 1
2564 2592 1
2564 983 1
2564 4 1
2564 2574 1
2564 2061 1
2564 1678 1
2564 3095 1
2564 2579 1
2564 135 1
2564 3623 1
2564 3089 1
2564 3656 1
2564 3116 1
2564 3124 1
2564 260 1
2564 2318 1
1543 1 1
1543 2050 1
1543 2049 1
1543 3591 1
1543 3074 1
1543 2566 1
1543 3073 1
1543 2 1
1543 2571 1
1543 27 1
1543 3586 1
1543 7 1
1543 1545 1
1543 1538 1
1543 3592 1
1543 3077 1
1543 523 1
1543 3079 1
1543 3100 1
1543 3121 1
1543 1537 1
1543 3078 1
1543 3075 1
1543 2563 1
1543 26 1
1543 3087 1
1543 2588 1
1543 521 1
1543 3097 1
1543 1539 1
1543 2073 1
1543 1548 1
1543 3650 1
1543 539 1
1543 3122 1
1543 3081 1
1543 1669 1
1543 3588 1
1543 1567 1
1543 1672 1
1543 3631 1
1543 2125 1
1543 74 1
1543 513 1
1543 2055 1
1543 31 1
1543 3598 1
1543 519 1
1543 12 1
1543 3606 1
1543 3096 1
1543 1561 1
1543 30 1
1543 3134 1
1543 1665 1
1543 10 1
1543 1772 1
1543 2255 1
1543 3585 1
1543 517 1
1543 541 1
1543 522 1
1543 2072 1
1543 2056 1
1543 3657 1
1543 23 1
1543 21 1
1543 121 1
1543 2053 1
1543 2080 1
1543 1616 1
1543 1037 1
1543 2865 1
1543 3132 1
1543 3590 1
1543 3117 1
1543 2666 1
1543 730 1
1543 1031 1
1543 1028 1
1543 2081 1
1543 2084 1
1543 1608 1
1543 2583 1
1543 64 1
1543 2592 1
1543 3654 1
1543 2574 1
1543 2061 1
1543 3212 1
1543 2160 1
1543 1607 1
1543 3221 1
1543 3636 1
1543 1540 1
1543 2111 1
1543 748 1
1543 3110 1
1543 1609 1
1543 2227 1
1543 689 1
1543 723 1
1543 2670 1
2084 1 1
2084 2049 1
2084 3073 1
2084 1541 1
2084 1538 1
2084 1537 1
2084 3615 1
2084 3103 1
2084 3599 1
2084 3076 1
2084 12 1
2084 1561 1
2084 89 1
2084 3594 1
2084 2218 1
2084 3180 1
2084 15 1
2084 1893 1
2084 128 1
2084 2068 1
2084 1547 1
2084 1057 1
2084 2063 1
2084 1056 1
2084 2292 1
2084 2577 1
2084 3680 1
2084 2713 1
3073 1 1
3073 2050 1
3073 2049 1
3073 3074 1
3073 2566 1
3073 1030 1
3073 38 1
3073 1542 1
3073 2571 1
3073 3586 1
3073 3 1
3073 7 1
3073 1545 1
3073 533 1
3073 1538 1
3073 3592 1
3073 3077 1
3073 523 1
3073 3100 1
3073 2572 1
3073 3107 1
3073 1048 1
3073 1136 1
3073 2607 1
3073 3282 1
3073 1537 1
3073 3078 1
3073 2062 1
3073 514 1
3073 3109 1
3073 3075 1
3073 3604 1
3073 1564 1
3073 526 1
3073 2563 1
3073 2606 1
3073 3652 1
3073 518 1
3073 1559 1
3073 26 1
3073 3087 1
3073 1026 1
3073 2564 1
3073 2569 1
3073 2588 1
3073 1544 1
3073 3103 1
3073 3097 1
3073 1573 1
3073 2059 1
3073 3599 1
3073 5 1
3073 1548 1
3073 2155 1
3073 3653 1
3073 3081 1
3073 2661 1
3073 609 1
3073 3633 1
3073 2233 1
3073 1025 1
3073 2054 1
3073 1543 1
3073 3588 1
3073 1043 1
3073 2051 1
3073 535 1
3073 2621 1
3073 1546 1
3073 531 1
3073 3618 1
3073 1040 1
3073 46 1
3073 87 1
3073 1566 1
3073 8 1
3073 1646 1
3073 3632 1
3073 3115 1
3073 24 1
3073 520 1
3073 2580 1
3073 2075 1
3073 3157 1
3073 3211 1
3073 1836 1
3073 513 1
3073 2055 1
3073 2568 1
3073 3082 1
3073 1568 1
3073 3076 1
3073 3090 1
3073 31 1
3073 519 1
3073 1046 1
3073 2596 1
3073 2562 1
3073 2086 1
3073 1072 1
3073 2174 1
3073 3257 1
3073 1027 1
3073 532 1
3073 1153 1
3073 3663 1
3073 3662 1
3073 2710 1
3073 536 1
3073 1034 1
3073 1561 1
3073 2624 1
3073 3083 1
3073 42 1
3073 50 1
3073 142 1
3073 515 1
3073 10 1
3073 3614 1
3073 2199 1
3073 3232 1
3073 2598 1
3073 937 1
3073 2120 1
3073 138 1
3073 3170 1
3073 3216 1
3073 2119 1
3073 168 1
3073 52 1
3073 1113 1
3073 2769 1
3073 3185 1
3073 517 1
3073 1063 1
3073 1038 1
3073 1029 1
3073 2586 1
3073 51 1
3073 2056 1
3073 3609 1
3073 3135 1
3073 1059 1
3073 2143 1
3073 3627 1
3073 2221 1
3073 2087 1
3073 36 1
3073 3644 1
3073 608 1
3073 3622 1
3073 746 1
3073 3594 1
3073 1045 1
3073 21 1
3073 3125 1
3073 571 1
3073 811 1
3073 2085 1
3073 72 1
3073 2646 1
3073 2053 1
3073 1036 1
3073 3085 1
3073 2677 1
3073 2706 1
3073 3132 1
3073 3099 1
3073 1716 1
3073 3590 1
3073 2587 1
3073 1035 1
3073 3629 1
3073 1554 1
3073 3117 1
3073 2667 1
3073 1090 1
3073 2576 1
3073 37 1
3073 1662 1
3073 1070 1
3073 1197 1
3073 2060 1
3073 66 1
3073 2130 1
3073 169 1
3073 3159 1
3073 2707 1
3073 15 1
3073 2561 1
3073 1031 1
3073 1032 1
3073 1558 1
3073 3587 1
3073 1547 1
3073 13 1
3073 545 1
3073 2567 1
3073 2081 1
3073 60 1
3073 3091 1
3073 2565 1
3073 29 1
3073 1057 1
3073 2583 1
3073 2584 1
3073 2575 1
3073 1549 1
3073 3246 1
3073 642 1
3073 1570 1
3073 2789 1
3073 3589 1
3073 3613 1
3073 2731 1
3073 2592 1
3073 88 1
3073 2063 1
3073 1093 1
3073 176 1
3073 3626 1
3073 1238 1
3073 83 1
3073 1576 1
3073 626 1
3073 3095 1
3073 1084 1
3073 94 1
3073 2629 1
3073 196 1
3073 2301 1
3073 2758 1
3073 3593 1
3073 3600 1
3073 2579 1
3073 3208 1
3073 2600 1
3073 736 1
3073 759 1
3073 2160 1
3073 79 1
3073 1064 1
3073 2179 1
3073 1161 1
3073 1251 1
3073 1540 1
3073 1058 1
3073 1604 1
3073 873 1
3073 1581 1
3073 9 1
3073 1240 1
3073 3628 1
3073 213 1
3073 3110 1
3073 3116 1
3073 564 1
3073 110 1
3073 3124 1
3073 768 1
3073 127 1
3073 1278 1
3073 901 1
3073 2751 1
3073 656 1
3073 3597 1
3073 2089 1
3073 2128 1
3073 951 1
3073 2771 1
3073 1778 1
1540 1 1
1540 2050 1
1540 2049 1
1540 3074 1
1540 2566 1
1540 1030 1
1540 3586 1
1540 1541 1
1540 7 1
1540 533 1
1540 3592 1
1540 3100 1
1540 3669 1
1540 1048 1
1540 2058 1
1540 1537 1
1540 516 1
1540 2062 1
1540 1052 1
1540 2563 1
1540 1026 1
1540 2698 1
1540 521 1
1540 3097 1
1540 53 1
1540 1548 1
1540 3641 1
1540 3081 1
1540 3633 1
1540 1025 1
1540 1543 1
1540 3588 1
1540 3637 1
1540 2051 1
1540 1546 1
1540 1033 1
1540 1230 1
1540 636 1
1540 520 1
1540 2075 1
1540 2115 1
1540 2648 1
1540 3104 1
1540 3664 1
1540 2124 1
1540 513 1
1540 2055 1
1540 2568 1
1540 3076 1
1540 12 1
1540 3616 1
1540 2114 1
1540 92 1
1540 145 1
1540 515 1
1540 2067 1
1540 82 1
1540 1183 1
1540 18 1
1540 3585 1
1540 2570 1
1540 20 1
1540 1557 1
1540 2056 1
1540 2594 1
1540 2079 1
1540 1044 1
1540 1045 1
1540 1582 1
1540 1169 1
1540 3085 1
1540 2080 1
1540 3111 1
1540 3099 1
1540 2325 1
1540 167 1
1540 1163 1
1540 3590 1
1540 45 1
1540 1090 1
1540 37 1
1540 2187 1
1540 2096 1
1540 1182 1
1540 1558 1
1540 2567 1
1540 1057 1
1540 2583 1
1540 3176 1
1540 2575 1
1540 529 1
1540 3613 1
1540 3200 1
1540 4 1
1540 1054 1
1540 122 1
1540 3095 1
1540 3188 1
1540 2184 1
1540 107 1
1540 2579 1
1540 1104 1
1540 2851 1
1540 1149 1
1540 2675 1
1540 43 1
1540 1540 1
1540 3089 1
1540 3656 1
1540 3237 1
1540 253 1
1540 1091 1
2566 1 1
2566 2050 1
2566 2049 1
2566 3591 1
2566 3074 1
2566 3073 1
2566 3586 1
2566 1541 1
2566 2585 1
2566 2078 1
2566 1538 1
2566 3592 1
2566 14 1
2566 63 1
2566 3079 1
2566 1537 1
2566 514 1
2566 3615 1
2566 1559 1
2566 1026 1
2566 2564 1
2566 2569 1
2566 1539 1
2566 3122 1
2566 537 1
2566 1296 1
2566 2241 1
2566 1025 1
2566 3080 1
2566 1543 1
2566 3588 1
2566 2051 1
2566 2590 1
2566 1567 1
2566 1646 1
2566 520 1
2566 2622 1
2566 764 1
2566 513 1
2566 2568 1
2566 3076 1
2566 31 1
2566 519 1
2566 2066 1
2566 2694 1
2566 532 1
2566 3118 1
2566 92 1
2566 2065 1
2566 2598 1
2566 2570 1
2566 1563 1
2566 51 1
2566 2056 1
2566 2259 1
2566 2071 1
2566 2090 1
2566 120 1
2566 856 1
2566 3136 1
2566 2646 1
2566 73 1
2566 2053 1
2566 2857 1
2566 3590 1
2566 2587 1
2566 1083 1
2566 2576 1
2566 2093 1
2566 646 1
2566 2561 1
2566 1031 1
2566 1547 1
2566 1028 1
2566 2081 1
2566 3091 1
2566 1051 1
2566 2616 1
2566 3589 1
2566 3200 1
2566 3654 1
2566 2063 1
2566 2112 1
2566 2088 1
2566 3169 1
2566 4 1
2566 3098 1
2566 2061 1
2566 3095 1
2566 1552 1
2566 3634 1
2566 3593 1
2566 3600 1
2566 2600 1
2566 40 1
2566 265 1
2566 583 1
2566 2778 1
2566 3146 1
2566 1250 1
2566 1091 1
2566 729 1
2566 602 1
2566 2147 1
541 1 1
541 2049 1
541 3074 1
541 516 1
541 1551 1
541 3599 1
541 5 1
541 17 1
541 1543 1
541 2137 1
541 513 1
541 2612 1
541 3616 1
541 2119 1
541 3585 1
541 2570 1
541 522 1
541 1059 1
541 6 1
541 3594 1
541 3210 1
541 3607 1
541 1097 1
541 2187 1
541 2561 1
541 1057 1
541 2583 1
541 1068 1
541 2052 1
541 25 1
541 2597 1
541 9 1
1547 1 1
1547 2050 1
1547 3591 1
1547 3074 1
1547 1030 1
1547 3073 1
1547 3586 1
1547 525 1
1547 1538 1
1547 3592 1
1547 3079 1
1547 1048 1
1547 1537 1
1547 3078 1
1547 3108 1
1547 2601 1
1547 2564 1
1547 2653 1
1547 5 1
1547 3081 1
1547 544 1
1547 537 1
1547 2054 1
1547 1543 1
1547 1055 1
1547 520 1
1547 1218 1
1547 2124 1
1547 2209 1
1547 513 1
1547 31 1
1547 3616 1
1547 1127 1
1547 2132 1
1547 1780 1
1547 76 1
1547 515 1
1547 18 1
1547 3585 1
1547 524 1
1547 2573 1
1547 1059 1
1547 6 1
1547 120 1
1547 1044 1
1547 1045 1
1547 21 1
1547 3125 1
1547 572 1
1547 2659 1
1547 2053 1
1547 2080 1
1547 3182 1
1547 3132 1
1547 3590 1
1547 1035 1
1547 45 1
1547 915 1
1547 2107 1
1547 3247 1
1547 2096 1
1547 2561 1
1547 3587 1
1547 3093 1
1547 2567 1
1547 3091 1
1547 3193 1
1547 2641 1
1547 703 1
1547 1093 1
1547 4 1
1547 2061 1
1547 1598 1
1547 200 1
1547 3593 1
1547 551 1
1547 1600 1
1547 177 1
1547 2101 1
1547 2600 1
1547 1067 1
1547 2688 1
1547 2111 1
1547 2267 1
1547 2265 1
1547 2220 1
1561 3074 1
1561 1030 1
1561 2572 1
1561 1052 1
1561 1236 1
1561 3599 1
1561 3081 1
1561 2631 1
1561 2589 1
1561 1043 1
1561 1553 1
1561 1105 1
1561 513 1
1561 519 1
1561 2722 1
1561 515 1
1561 2119 1
1561 20 1
1561 3113 1
1561 2090 1
1561 3085 1
1561 3607 1
1561 2142 1
1561 181 1
1561 1886 1
1561 2561 1
1561 29 1
1561 2052 1
1561 3203 1
1561 3589 1
1561 986 1
1561 2170 1
1561 3112 1
1561 2600 1
1561 873 1
1056 1 1
1056 2049 1
1056 3591 1
1056 3 1
1056 14 1
1056 514 1
1056 3615 1
1056 3119 1
1056 1033 1
1056 2075 1
1056 3082 1
1056 2064 1
1056 3088 1
1056 18 1
1056 746 1
1056 3594 1
1056 1560 1
1056 3140 1
1056 1577 1
1056 3152 1
1056 1684 1
1056 2708 1
1056 669 1
1056 3587 1
1056 2565 1
1056 1570 1
1056 2088 1
1056 865 1
1056 1599 1
1056 634 1
3691 2065 1
3691 1029 1
3691 2056 1
3691 1632 1
3691 2052 1
3691 1066 1
3691 1058 1
3074 1 1
3074 2050 1
3074 2049 1
3074 3591 1
3074 3074 1
3074 2566 1
3074 1030 1
3074 3073 1
3074 2 1
3074 1542 1
3074 2571 1
3074 1541 1
3074 3 1
3074 2595 1
3074 7 1
3074 2585 1
3074 3153 1
3074 1545 1
3074 1538 1
3074 3592 1
3074 3077 1
3074 523 1
3074 3107 1
3074 1048 1
3074 2619 1
3074 2607 1
3074 1537 1
3074 516 1
3074 3078 1
3074 2062 1
3074 514 1
3074 3109 1
3074 3075 1
3074 1564 1
3074 526 1
3074 2563 1
3074 3086 1
3074 3624 1
3074 518 1
3074 95 1
3074 3149 1
3074 1026 1
3074 2564 1
3074 2569 1
3074 1544 1
3074 3103 1
3074 521 1
3074 2640 1
3074 3619 1
3074 1539 1
3074 2059 1
3074 5 1
3074 17 1
3074 16 1
3074 2129 1
3074 41 1
3074 3595 1
3074 2233 1
3074 236 1
3074 1025 1
3074 3080 1
3074 2054 1
3074 1543 1
3074 2109 1
3074 3588 1
3074 1043 1
3074 2051 1
3074 1546 1
3074 531 1
3074 3671 1
3074 3618 1
3074 2578 1
3074 2137 1
3074 1653 1
3074 1033 1
3074 1646 1
3074 3632 1
3074 3115 1
3074 2663 1
3074 520 1
3074 2074 1
3074 1654 1
3074 1553 1
3074 3104 1
3074 2124 1
3074 579 1
3074 513 1
3074 2055 1
3074 2568 1
3074 3082 1
3074 3076 1
3074 3090 1
3074 31 1
3074 2126 1
3074 32 1
3074 1590 1
3074 3603 1
3074 2562 1
3074 2612 1
3074 1127 1
3074 1027 1
3074 2132 1
3074 2774 1
3074 1752 1
3074 2603 1
3074 70 1
3074 1103 1
3074 1561 1
3074 1088 1
3074 1787 1
3074 3083 1
3074 42 1
3074 2169 1
3074 76 1
3074 515 1
3074 3088 1
3074 2067 1
3074 3614 1
3074 2598 1
3074 1674 1
3074 1183 1
3074 18 1
3074 62 1
3074 1629 1
3074 71 1
3074 3585 1
3074 524 1
3074 517 1
3074 2570 1
3074 522 1
3074 2072 1
3074 2573 1
3074 1029 1
3074 3602 1
3074 1557 1
3074 1563 1
3074 2056 1
3074 1059 1
3074 3661 1
3074 2143 1
3074 2673 1
3074 6 1
3074 2079 1
3074 2087 1
3074 23 1
3074 2071 1
3074 3141 1
3074 606 1
3074 3594 1
3074 1044 1
3074 3596 1
3074 33 1
3074 105 1
3074 2659 1
3074 219 1
3074 1206 1
3074 2218 1
3074 3085 1
3074 2715 1
3074 1061 1
3074 2716 1
3074 3132 1
3074 1594 1
3074 3642 1
3074 3590 1
3074 1554 1
3074 2576 1
3074 1097 1
3074 3152 1
3074 1627 1
3074 1095 1
3074 2240 1
3074 678 1
3074 1903 1
3074 15 1
3074 3666 1
3074 621 1
3074 1910 1
3074 1625 1
3074 1912 1
3074 152 1
3074 663 1
3074 2258 1
3074 2561 1
3074 1031 1
3074 1032 1
3074 1028 1
3074 545 1
3074 3147 1
3074 2626 1
3074 3091 1
3074 2630 1
3074 2565 1
3074 29 1
3074 1039 1
3074 2052 1
3074 25 1
3074 3670 1
3074 91 1
3074 1549 1
3074 3128 1
3074 1637 1
3074 3589 1
3074 64 1
3074 19 1
3074 54 1
3074 3655 1
3074 1080 1
3074 2088 1
3074 1066 1
3074 176 1
3074 2574 1
3074 3092 1
3074 1576 1
3074 1550 1
3074 2620 1
3074 569 1
3074 2061 1
3074 2623 1
3074 1116 1
3074 2149 1
3074 3672 1
3074 1166 1
3074 3593 1
3074 3600 1
3074 551 1
3074 2579 1
3074 1056 1
3074 1118 1
3074 2647 1
3074 2577 1
3074 1104 1
3074 1067 1
3074 3146 1
3074 1058 1
3074 35 1
3074 2092 1
3074 2279 1
3074 1599 1
3074 3628 1
3074 2642 1
3074 1606 1
3074 1591 1
3074 3137 1
3074 2835 1
3074 1245 1
3074 3610 1
3074 3177 1
3074 1144 1
3074 243 1
3074 2645 1
3074 3597 1
3074 593 1
3074 1611 1
3074 566 1
3074 3262 1
3074 1703 1
3074 1702 1
3074 1571 1
2053 1 1
2053 2050 1
2053 2049 1
2053 3591 1
2053 3074 1
2053 38 1
2053 2 1
2053 1542 1
2053 3586 1
2053 7 1
2053 3592 1
2053 523 1
2053 3079 1
2053 2572 1
2053 2058 1
2053 1537 1
2053 516 1
2053 3604 1
2053 3652 1
2053 2077 1
2053 1026 1
2053 543 1
2053 3097 1
2053 3119 1
2053 5 1
2053 3081 1
2053 1025 1
2053 34 1
2053 3588 1
2053 1043 1
2053 1569 1
2053 535 1
2053 1546 1
2053 3618 1
2053 2122 1
2053 2256 1
2053 3640 1
2053 520 1
2053 3157 1
2053 1071 1
2053 859 1
2053 764 1
2053 513 1
2053 2568 1
2053 3082 1
2053 3094 1
2053 3598 1
2053 1046 1
2053 3645 1
2053 3616 1
2053 2064 1
2053 2057 1
2053 3096 1
2053 30 1
2053 2065 1
2053 515 1
2053 10 1
2053 2582 1
2053 89 1
2053 1660 1
2053 1874 1
2053 3585 1
2053 524 1
2053 2570 1
2053 2106 1
2053 3612 1
2053 85 1
2053 1578 1
2053 2053 1
2053 1036 1
2053 1588 1
2053 3231 1
2053 1228 1
2053 3590 1
2053 3607 1
2053 45 1
2053 3117 1
2053 1689 1
2053 2707 1
2053 1950 1
2053 2561 1
2053 3093 1
2053 542 1
2053 2565 1
2053 2644 1
2053 3605 1
2053 1086 1
2053 529 1
2053 703 1
2053 1080 1
2053 548 1
2053 3098 1
2053 2061 1
2053 1552 1
2053 1118 1
2053 2138 1
2053 782 1
2053 753 1
2053 2649 1
2053 1232 1
2053 1540 1
2053 35 1
2053 159 1
2053 540 1
2053 787 1
2053 2744 1
2053 2635 1
2053 2147 1
4 1 1
4 2050 1
4 2049 1
4 3591 1
4 3073 1
4 3617 1
4 3586 1
4 1545 1
4 533 1
4 1538 1
4 3592 1
4 14 1
4 534 1
4 2058 1
4 1537 1
4 516 1
4 3078 1
4 2563 1
4 1026 1
4 2564 1
4 521 1
4 3097 1
4 539 1
4 3122 1
4 3081 1
4 1126 1
4 1025 1
4 3618 1
4 2617 1
4 1033 1
4 2580 1
4 3105 1
4 830 1
4 513 1
4 3082 1
4 3094 1
4 3598 1
4 32 1
4 1027 1
4 11 1
4 2064 1
4 48 1
4 2114 1
4 2639 1
4 123 1
4 2146 1
4 3216 1
4 3163 1
4 1231 1
4 1858 1
4 1856 1
4 1113 1
4 3585 1
4 524 1
4 2570 1
4 522 1
4 2072 1
4 1029 1
4 2056 1
4 3609 1
4 3661 1
4 3627 1
4 2729 1
4 3206 1
4 2618 1
4 3594 1
4 3625 1
4 21 1
4 1199 1
4 2085 1
4 73 1
4 2080 1
4 3266 1
4 3132 1
4 2099 1
4 1663 1
4 1554 1
4 1098 1
4 527 1
4 1097 1
4 2567 1
4 1051 1
4 2565 1
4 2084 1
4 2052 1
4 3670 1
4 1636 1
4 1637 1
4 1143 1
4 3589 1
4 1050 1
4 1550 1
4 1598 1
4 551 1
4 119 1
4 3658 1
4 3239 1
4 43 1
4 135 1
4 3089 1
4 3649 1
4 1006 1
4 3288 1
4 2635 1
4 2748 1
4 2191 1
4 2293 1
4 1572 1
4 1715 1
544 1 1
544 3074 1
544 2566 1
544 3586 1
544 2091 1
544 3077 1
544 516 1
544 1026 1
544 3588 1
544 1648 1
544 2593 1
544 1096 1
544 2568 1
544 3094 1
544 3585 1
544 1029 1
544 36 1
544 568 1
544 3607 1
544 2576 1
544 2561 1
544 1031 1
544 3587 1
544 1028 1
544 2052 1
544 2575 1
544 637 1
544 3589 1
544 1047 1
544 44 1
544 3110 1
1033 1 1
1033 2050 1
1033 2049 1
1033 3074 1
1033 2566 1
1033 1030 1
1033 3073 1
1033 2 1
1033 3586 1
1033 1541 1
1033 2585 1
1033 1538 1
1033 2572 1
1033 1537 1
1033 518 1
1033 1559 1
1033 1026 1
1033 2569 1
1033 543 1
1033 1025 1
1033 3588 1
1033 1043 1
1033 1546 1
1033 531 1
1033 3618 1
1033 3631 1
1033 1033 1
1033 2074 1
1033 1553 1
1033 2076 1
1033 1071 1
1033 513 1
1033 2568 1
1033 3076 1
1033 3090 1
1033 69 1
1033 519 1
1033 2562 1
1033 3102 1
1033 2610 1
1033 3259 1
1033 1176 1
1033 1666 1
1033 50 1
1033 1239 1
1033 1087 1
1033 2120 1
1033 2255 1
1033 2254 1
1033 62 1
1033 1629 1
1033 3163 1
1033 1113 1
1033 3585 1
1033 524 1
1033 2072 1
1033 1029 1
1033 2729 1
1033 6 1
1033 23 1
1033 36 1
1033 3594 1
1033 2053 1
1033 1616 1
1033 1622 1
1033 2633 1
1033 15 1
1033 1182 1
1033 2561 1
1033 530 1
1033 3285 1
1033 2565 1
1033 1069 1
1033 1060 1
1033 990 1
1033 4 1
1033 3187 1
1033 1116 1
1033 245 1
1033 3593 1
1033 538 1
1033 2647 1
1033 2657 1
1033 943 1
1033 1222 1
1033 1064 1
1033 1067 1
1033 1540 1
1033 84 1
1033 3192 1
1033 2182 1
1033 1800 1
2070 1 1
2070 1542 1
2070 3586 1
2070 7 1
2070 3077 1
2070 3079 1
2070 2077 1
2070 2564 1
2070 1539 1
2070 2653 1
2070 520 1
2070 1553 1
2070 513 1
2070 3150 1
2070 2067 1
2070 62 1
2070 52 1
2070 3585 1
2070 522 1
2070 3602 1
2070 2650 1
2070 3609 1
2070 2087 1
2070 3113 1
2070 33 1
2070 2053 1
2070 2100 1
2070 3152 1
2070 2565 1
2070 2602 1
2070 2052 1
2070 4 1
2070 2184 1
2070 929 1
2070 2605 1
2070 3114 1
2070 1540 1
24 3074 1
24 2566 1
24 1542 1
24 3291 1
24 3592 1
24 3077 1
24 3608 1
24 1537 1
24 514 1
24 3075 1
24 2564 1
24 1544 1
24 1025 1
24 3080 1
24 2578 1
24 1553 1
24 2654 1
24 3664 1
24 2055 1
24 519 1
24 3606 1
24 1153 1
24 2064 1
24 515 1
24 524 1
24 2594 1
24 6 1
24 3594 1
24 3111 1
24 2561 1
24 1558 1
24 2616 1
24 2145 1
24 271 1
24 834 1
2121 2566 1
2121 3586 1
2121 3615 1
2121 2564 1
2121 2051 1
2121 3088 1
2121 3185 1
2121 2056 1
2121 4 1
2121 3277 1
2121 1571 1
1546 1 1
1546 1030 1
1546 3073 1
1546 3586 1
1546 3 1
1546 1538 1
1546 2591 1
1546 3608 1
1546 2619 1
1546 3121 1
1546 516 1
1546 3078 1
1546 3109 1
1546 3604 1
1546 1559 1
1546 2156 1
1546 3149 1
1546 2564 1
1546 1544 1
1546 3599 1
1546 1076 1
1546 1246 1
1546 16 1
1546 3595 1
1546 1669 1
1546 1025 1
1546 3080 1
1546 1553 1
1546 2124 1
1546 513 1
1546 2055 1
1546 2568 1
1546 519 1
1546 3603 1
1546 2562 1
1546 2095 1
1546 1027 1
1546 1107 1
1546 142 1
1546 2067 1
1546 1635 1
1546 2786 1
1546 3213 1
1546 100 1
1546 3585 1
1546 541 1
1546 522 1
1546 2573 1
1546 1029 1
1546 2637 1
1546 2056 1
1546 49 1
1546 3113 1
1546 1045 1
1546 847 1
1546 2053 1
1546 1036 1
1546 2685 1
1546 1037 1
1546 3183 1
1546 2236 1
1546 3590 1
1546 1075 1
1546 2133 1
1546 152 1
1546 2561 1
1546 1032 1
1546 3587 1
1546 1547 1
1546 2567 1
1546 2081 1
1546 1051 1
1546 2565 1
1546 3605 1
1546 3176 1
1546 3670 1
1546 2652 1
1546 1060 1
1546 2112 1
1546 1194 1
1546 3092 1
1546 2136 1
1546 1116 1
1546 2636 1
1546 3593 1
1546 2579 1
1546 3638 1
1546 2577 1
1546 827 1
1546 3649 1
1546 136 1
1546 933 1
1546 949 1
3622 1 1
3622 3074 1
3622 1537 1
3622 2563 1
3622 518 1
3622 2564 1
3622 539 1
3622 1025 1
3622 1543 1
3622 3105 1
3622 3603 1
3622 1027 1
3622 2057 1
3622 3170 1
3622 3213 1
3622 522 1
3622 1029 1
3622 3602 1
3622 1557 1
3622 3099 1
3622 37 1
3622 2561 1
3622 2135 1
3622 3613 1
3622 3623 1
3622 2257 1
12 1 1
12 2050 1
12 2571 1
12 1538 1
12 3077 1
12 2572 1
12 516 1
12 1079 1
12 1026 1
12 3119 1
12 1539 1
12 2129 1
12 1043 1
12 1033 1
12 520 1
12 74 1
12 2066 1
12 2596 1
12 2735 1
12 1027 1
12 2603 1
12 3660 1
12 10 1
12 101 1
12 517 1
12 2570 1
12 3612 1
12 2079 1
12 1817 1
12 2743 1
12 1082 1
12 3132 1
12 2686 1
12 2561 1
12 1032 1
12 530 1
12 2565 1
12 720 1
12 595 1
12 1602 1
12 1064 1
12 3635 1
12 2273 1
12 787 1
1587 2050 1
1587 2591 1
1587 1105 1
1587 513 1
1587 3585 1
1587 524 1
1587 2053 1
1587 3590 1
1587 1098 1
1587 1051 1
1587 2565 1
1587 1540 1
1587 2310 1
1587 1939 1
2065 1 1
2065 3073 1
2065 2 1
2065 3 1
2065 3592 1
2065 1048 1
2065 1537 1
2065 2564 1
2065 5 1
2065 1025 1
2065 1033 1
2065 8 1
2065 3164 1
2065 3632 1
2065 1728 1
2065 513 1
2065 3090 1
2065 2066 1
2065 2562 1
2065 1034 1
2065 42 1
2065 2120 1
2065 3585 1
2065 2570 1
2065 1162 1
2065 3612 1
2065 3101 1
2065 23 1
2065 1556 1
2065 872 1
2065 3590 1
2065 2097 1
2065 2205 1
2065 2068 1
2065 1632 1
2065 3670 1
2065 3098 1
2065 538 1
2065 1668 1
2065 1540 1
601 1 1
601 518 1
601 1544 1
601 3585 1
601 2071 1
601 586 1
601 2148 1
601 1075 1
601 2202 1
1579 1 1
1579 2049 1
1579 2566 1
1579 2595 1
1579 534 1
1579 2563 1
1579 2077 1
1579 2601 1
1579 2569 1
1579 1573 1
1579 3081 1
1579 1025 1
1579 74 1
1579 85 1
1579 917 1
1579 2306 1
1579 3249 1
178 2078 1
178 45 1
178 2052 1
3586 1 1
3586 2050 1
3586 2049 1
3586 3591 1
3586 3074 1
3586 2566 1
3586 1030 1
3586 38 1
3586 3073 1
3586 1542 1
3586 2571 1
3586 3586 1
3586 3 1
3586 7 1
3586 1545 1
3586 525 1
3586 3592 1
3586 3077 1
3586 3079 1
3586 3100 1
3586 209 1
3586 2572 1
3586 2619 1
3586 3084 1
3586 2607 1
3586 1537 1
3586 516 1
3586 3078 1
3586 514 1
3586 3604 1
3586 2563 1
3586 3108 1
3586 3624 1
3586 3652 1
3586 518 1
3586 3143 1
3586 2077 1
3586 26 1
3586 2601 1
3586 1026 1
3586 2569 1
3586 1544 1
3586 521 1
3586 3619 1
3586 3119 1
3586 1539 1
3586 2581 1
3586 3161 1
3586 5 1
3586 3653 1
3586 2140 1
3586 2699 1
3586 3081 1
3586 16 1
3586 2129 1
3586 41 1
3586 2662 1
3586 544 1
3586 537 1
3586 546 1
3586 1025 1
3586 1543 1
3586 22 1
3586 3588 1
3586 1049 1
3586 1043 1
3586 2051 1
3586 2593 1
3586 1645 1
3586 1546 1
3586 531 1
3586 3601 1
3586 2578 1
3586 1679 1
3586 2745 1
3586 1033 1
3586 2069 1
3586 67 1
3586 8 1
3586 1094 1
3586 3620 1
3586 3640 1
3586 520 1
3586 2580 1
3586 77 1
3586 74 1
3586 2139 1
3586 513 1
3586 2055 1
3586 2568 1
3586 3082 1
3586 1568 1
3586 3076 1
3586 1046 1
3586 3603 1
3586 2562 1
3586 55 1
3586 3616 1
3586 2689 1
3586 1027 1
3586 11 1
3586 1154 1
3586 2064 1
3586 1764 1
3586 2057 1
3586 536 1
3586 30 1
3586 1610 1
3586 142 1
3586 3280 1
3586 75 1
3586 3660 1
3586 515 1
3586 10 1
3586 2067 1
3586 1186 1
3586 2598 1
3586 1555 1
3586 778 1
3586 3170 1
3586 2119 1
3586 813 1
3586 793 1
3586 3585 1
3586 517 1
3586 2570 1
3586 541 1
3586 2072 1
3586 1029 1
3586 2586 1
3586 1618 1
3586 2056 1
3586 3609 1
3586 3612 1
3586 1059 1
3586 85 1
3586 2594 1
3586 49 1
3586 2658 1
3586 2729 1
3586 2087 1
3586 3644 1
3586 2071 1
3586 3206 1
3586 1613 1
3586 3594 1
3586 1044 1
3586 1045 1
3586 1579 1
3586 3156 1
3586 1582 1
3586 105 1
3586 2719 1
3586 3331 1
3586 2053 1
3586 2628 1
3586 1560 1
3586 597 1
3586 129 1
3586 2761 1
3586 2326 1
3586 3322 1
3586 3590 1
3586 2587 1
3586 2207 1
3586 2154 1
3586 15 1
3586 2093 1
3586 3666 1
3586 1625 1
3586 604 1
3586 3276 1
3586 1953 1
3586 1906 1
3586 707 1
3586 2561 1
3586 1031 1
3586 1032 1
3586 3587 1
3586 1028 1
3586 3093 1
3586 542 1
3586 3091 1
3586 2630 1
3586 1628 1
3586 29 1
3586 1039 1
3586 2602 1
3586 2583 1
3586 2052 1
3586 3605 1
3586 25 1
3586 2584 1
3586 1549 1
3586 3128 1
3586 2787 1
3586 3589 1
3586 1638 1
3586 3155 1
3586 2731 1
3586 2063 1
3586 99 1
3586 548 1
3586 3175 1
3586 2690 1
3586 688 1
3586 595 1
3586 1054 1
3586 83 1
3586 1550 1
3586 2623 1
3586 708 1
3586 3095 1
3586 3630 1
3586 1552 1
3586 3593 1
3586 1047 1
3586 3112 1
3586 2577 1
3586 58 1
3586 2798 1
3586 3189 1
3586 825 1
3586 1161 1
3586 1229 1
3586 1257 1
3586 1011 1
3586 1058 1
3586 35 1
3586 2613 1
3586 3089 1
3586 3130 1
3586 1065 1
3586 3647 1
3586 1185 1
3586 3110 1
3586 2249 1
3586 3610 1
3586 3124 1
3586 2635 1
3586 959 1
3586 2751 1
3586 2695 1
3586 3597 1
3586 1202 1
3586 1976 1
3586 194 1
3586 1736 1
3586 1825 1
3592 1 1
3592 2050 1
3592 2049 1
3592 3074 1
3592 1030 1
3592 3073 1
3592 2 1
3592 1542 1
3592 2571 1
3592 3586 1
3592 1541 1
3592 3 1
3592 2078 1
3592 533 1
3592 1538 1
3592 63 1
3592 3079 1
3592 1537 1
3592 3078 1
3592 514 1
3592 3075 1
3592 3087 1
3592 1026 1
3592 1544 1
3592 521 1
3592 5 1
3592 1041 1
3592 1025 1
3592 2054 1
3592 22 1
3592 3588 1
3592 2051 1
3592 2578 1
3592 1566 1
3592 1094 1
3592 3632 1
3592 513 1
3592 3082 1
3592 31 1
3592 2562 1
3592 3102 1
3592 1027 1
3592 3606 1
3592 1154 1
3592 48 1
3592 3663 1
3592 3118 1
3592 536 1
3592 515 1
3592 18 1
3592 3585 1
3592 524 1
3592 517 1
3592 541 1
3592 522 1
3592 3101 1
3592 2079 1
3592 23 1
3592 3594 1
3592 1614 1
3592 3123 1
3592 1650 1
3592 1172 1
3592 855 1
3592 1081 1
3592 2104 1
3592 2576 1
3592 2206 1
3592 908 1
3592 1158 1
3592 726 1
3592 2561 1
3592 1031 1
3592 2565 1
3592 2616 1
3592 3605 1
3592 1549 1
3592 64 1
3592 2592 1
3592 88 1
3592 1066 1
3592 4 1
3592 83 1
3592 3095 1
3592 3154 1
3592 1056 1
3592 1064 1
3592 1581 1
3592 124 1
3592 144 1
3592 2746 1
3592 3292 1
3592 3262 1
3592 903 1
5 1 1
5 2050 1
5 2049 1
5 3074 1
5 2566 1
5 1030 1
5 3073 1
5 3586 1
5 2595 1
5 2585 1
5 2078 1
5 525 1
5 1538 1
5 3079 1
5 3121 1
5 1537 1
5 3078 1
5 3109 1
5 3075 1
5 3604 1
5 78 1
5 1079 1
5 1026 1
5 2564 1
5 2581 1
5 53 1
5 1109 1
5 2699 1
5 2241 1
5 1025 1
5 3080 1
5 2054 1
5 1543 1
5 22 1
5 1645 1
5 1546 1
5 3631 1
5 3611 1
5 1686 1
5 2074 1
5 2712 1
5 2076 1
5 2568 1
5 3076 1
5 2562 1
5 3106 1
5 1027 1
5 11 1
5 3606 1
5 1102 1
5 1561 1
5 3226 1
5 910 1
5 3614 1
5 205 1
5 3585 1
5 524 1
5 517 1
5 2650 1
5 1059 1
5 3657 1
5 1630 1
5 36 1
5 3594 1
5 1556 1
5 561 1
5 2053 1
5 1078 1
5 1619 1
5 2767 1
5 1554 1
5 2207 1
5 2060 1
5 3666 1
5 624 1
5 1925 1
5 3247 1
5 2561 1
5 1031 1
5 1032 1
5 3587 1
5 2567 1
5 1051 1
5 1039 1
5 19 1
5 3092 1
5 2620 1
5 3095 1
5 3212 1
5 645 1
5 162 1
5 1047 1
5 2101 1
5 1056 1
5 2600 1
5 588 1
5 2111 1
5 139 1
5 1680 1
5 1091 1
5 656 1
5 3597 1
5 1889 1
5 697 1
1552 1 1
1552 2049 1
1552 1542 1
1552 3617 1
1552 3 1
1552 2572 1
1552 1537 1
1552 3078 1
1552 2062 1
1552 514 1
1552 518 1
1552 2581 1
1552 3599 1
1552 3677 1
1552 1025 1
1552 3588 1
1552 1055 1
1552 1049 1
1552 513 1
1552 2057 1
1552 515 1
1552 3585 1
1552 524 1
1552 2288 1
1552 3594 1
1552 2080 1
1552 2561 1
1552 1031 1
1552 1549 1
1552 655 1
1552 1269 1
1552 3154 1
1552 918 1
1552 3593 1
1552 1124 1
1552 3112 1
1552 2668 1
1552 3189 1
1552 135 1
1552 3295 1
1552 2737 1
2058 1 1
2058 2050 1
2058 2049 1
2058 1030 1
2058 3073 1
2058 3586 1
2058 1541 1
2058 3079 1
2058 3107 1
2058 1537 1
2058 526 1
2058 1026 1
2058 2564 1
2058 1544 1
2058 2059 1
2058 3599 1
2058 2070 1
2058 3653 1
2058 3127 1
2058 2669 1
2058 3595 1
2058 1025 1
2058 1043 1
2058 1040 1
2058 1033 1
2058 8 1
2058 3632 1
2058 1096 1
2058 513 1
2058 3076 1
2058 3090 1
2058 532 1
2058 2064 1
2058 1562 1
2058 157 1
2058 2065 1
2058 2784 1
2058 2162 1
2058 515 1
2058 3088 1
2058 2163 1
2058 2582 1
2058 71 1
2058 3585 1
2058 524 1
2058 1063 1
2058 522 1
2058 2072 1
2058 1029 1
2058 3602 1
2058 2056 1
2058 3661 1
2058 6 1
2058 36 1
2058 1659 1
2058 1150 1
2058 2053 1
2058 3111 1
2058 1617 1
2058 3099 1
2058 2099 1
2058 3590 1
2058 658 1
2058 2630 1
2058 2565 1
2058 2084 1
2058 2644 1
2058 3155 1
2058 2088 1
2058 4 1
2058 3098 1
2058 61 1
2058 2623 1
2058 3600 1
2058 3674 1
2058 2605 1
2058 1000 1
2058 3089 1
2058 3647 1
2058 1074 1
2058 2249 1
2058 3217 1
2058 3116 1
2058 2089 1
1568 2050 1
1568 2049 1
1568 1545 1
1568 2103 1
1568 3078 1
1568 526 1
1568 1079 1
1568 543 1
1568 2059 1
1568 3595 1
1568 3271 1
1568 1025 1
1568 3611 1
1568 3106 1
1568 2095 1
1568 3118 1
1568 3088 1
1568 2153 1
1568 168 1
1568 3609 1
1568 3125 1
1568 2053 1
1568 15 1
1568 2133 1
1568 1114 1
1568 2565 1
1568 25 1
1568 2828 1
1568 1540 1
1568 35 1
1568 717 1
3609 1 1
3609 2050 1
3609 3591 1
3609 3074 1
3609 2078 1
3609 1545 1
3609 1537 1
3609 5 1
3609 537 1
3609 1025 1
3609 2792 1
3609 513 1
3609 2568 1
3609 532 1
3609 1610 1
3609 2065 1
3609 515 1
3609 2110 1
3609 3609 1
3609 3594 1
3609 580 1
3609 3332 1
3609 527 1
3609 2576 1
3609 2633 1
3609 2561 1
3609 529 1
3609 3589 1
3609 3654 1
3609 4 1
3609 3256 1
3609 1226 1
3609 3207 1
3609 1685 1
3609 892 1
57 2050 1
57 2049 1
57 1542 1
57 3592 1
57 3107 1
57 1537 1
57 516 1
57 3075 1
57 5 1
57 2561 1
57 2565 1
57 2770 1
57 4 1
1032 1 1
1032 2049 1
1032 3591 1
1032 3074 1
1032 2566 1
1032 1030 1
1032 1542 1
1032 2571 1
1032 1541 1
1032 2585 1
1032 1538 1
1032 3592 1
1032 3077 1
1032 523 1
1032 1537 1
1032 514 1
1032 547 1
1032 2564 1
1032 521 1
1032 3097 1
1032 17 1
1032 2699 1
1032 2589 1
1032 1025 1
1032 1543 1
1032 28 1
1032 2051 1
1032 46 1
1032 67 1
1032 3620 1
1032 520 1
1032 2075 1
1032 2115 1
1032 2076 1
1032 1071 1
1032 907 1
1032 3104 1
1032 513 1
1032 3082 1
1032 3076 1
1032 519 1
1032 1592 1
1032 2151 1
1032 2064 1
1032 3662 1
1032 70 1
1032 3088 1
1032 2164 1
1032 89 1
1032 1690 1
1032 1629 1
1032 3585 1
1032 524 1
1032 517 1
1032 2570 1
1032 1029 1
1032 2105 1
1032 3101 1
1032 6 1
1032 23 1
1032 1044 1
1032 3625 1
1032 21 1
1032 1556 1
1032 1132 1
1032 2150 1
1032 3590 1
1032 2587 1
1032 2611 1
1032 3607 1
1032 2107 1
1032 2130 1
1032 2093 1
1032 132 1
1032 2561 1
1032 1558 1
1032 1547 1
1032 542 1
1032 3639 1
1032 2052 1
1032 3605 1
1032 1060 1
1032 3613 1
1032 3155 1
1032 1234 1
1032 4 1
1032 3676 1
1032 2579 1
1032 233 1
1032 2600 1
1032 9 1
1032 153 1
1032 2305 1
1032 3124 1
1032 3162 1
1043 1 1
1043 2050 1
1043 3074 1
1043 3 1
1043 2091 1
1043 1537 1
1043 3108 1
1043 1539 1
1043 3081 1
1043 1025 1
1043 1543 1
1043 1043 1
1043 2069 1
1043 513 1
1043 1568 1
1043 3603 1
1043 3585 1
1043 2637 1
1043 179 1
1043 72 1
1043 3085 1
1043 1035 1
1043 550 1
1043 1625 1
1043 2068 1
1043 2567 1
1043 1184 1
1043 25 1
1043 54 1
1043 1080 1
1043 1676 1
1043 4 1
1043 141 1
1043 1540 1
1043 2092 1
1043 1245 1
1043 2269 1
1043 1151 1
545 1 1
545 2049 1
545 3074 1
545 2566 1
545 1537 1
545 514 1
545 3075 1
545 1621 1
545 2564 1
545 2073 1
545 1025 1
545 3588 1
545 2578 1
545 513 1
545 3076 1
545 2612 1
545 2057 1
545 2598 1
545 1042 1
545 2072 1
545 2105 1
545 3594 1
545 2677 1
545 2148 1
545 37 1
545 1032 1
545 3587 1
545 2567 1
545 1084 1
545 538 1
545 2608 1
1087 2049 1
1087 2566 1
1087 3075 1
1087 41 1
1087 1543 1
1087 2568 1
1087 2064 1
1087 1610 1
1087 2247 1
1087 3605 1
1087 2584 1
1087 1636 1
23 1 1
23 2050 1
23 3591 1
23 3074 1
23 1030 1
23 3073 1
23 2 1
23 1538 1
23 1537 1
23 516 1
23 3624 1
23 1026 1
23 1539 1
23 2073 1
23 5 1
23 3659 1
23 3080 1
23 34 1
23 513 1
23 2095 1
23 532 1
23 1063 1
23 2056 1
23 6 1
23 2087 1
23 3594 1
23 2244 1
23 2576 1
23 1622 1
23 1117 1
23 2614 1
23 61 1
23 3593 1
23 106 1
23 2742 1
2621 1 1
2621 3084 1
2621 2073 1
2621 2562 1
2621 2229 1
2621 545 1
2621 3639 1
2621 2052 1
2621 3095 1
2621 3144 1
2621 1211 1
2621 9 1
584 2 1
584 3081 1
584 2051 1
584 3090 1
584 2610 1
584 3184 1
584 2065 1
584 3614 1
584 1028 1
584 3129 1
584 3165 1
2231 1538 1
2231 1025 1
2231 3585 1
2570 1 1
2570 2049 1
2570 3591 1
2570 3073 1
2570 27 1
2570 1541 1
2570 7 1
2570 525 1
2570 1538 1
2570 14 1
2570 1052 1
2570 1026 1
2570 3103 1
2570 3619 1
2570 1041 1
2570 2109 1
2570 3588 1
2570 1055 1
2570 1043 1
2570 2621 1
2570 3632 1
2570 1108 1
2570 2075 1
2570 2115 1
2570 2211 1
2570 3234 1
2570 513 1
2570 2055 1
2570 2568 1
2570 3094 1
2570 3076 1
2570 2126 1
2570 519 1
2570 32 1
2570 2596 1
2570 2562 1
2570 3133 1
2570 1652 1
2570 1561 1
2570 3148 1
2570 42 1
2570 75 1
2570 10 1
2570 56 1
2570 82 1
2570 1042 1
2570 2146 1
2570 3585 1
2570 524 1
2570 2573 1
2570 3609 1
2570 3612 1
2570 1044 1
2570 3123 1
2570 1145 1
2570 2053 1
2570 3085 1
2570 1081 1
2570 2236 1
2570 1035 1
2570 641 1
2570 2561 1
2570 1031 1
2570 1547 1
2570 1028 1
2570 29 1
2570 560 1
2570 3128 1
2570 3283 1
2570 19 1
2570 1639 1
2570 4 1
2570 581 1
2570 1552 1
2570 107 1
2570 916 1
2570 3264 1
2570 2577 1
2570 3623 1
2570 2092 1
2570 540 1
2570 144 1
2570 643 1
2570 80 1
2570 1611 1
2570 1304 1
1571 3073 1
1571 3586 1
1571 523 1
1571 63 1
1571 1544 1
1571 521 1
1571 3588 1
1571 1569 1
1571 2617 1
1571 2562 1
1571 528 1
1571 785 1
1571 3585 1
1571 2105 1
1571 3609 1
1571 1115 1
1571 33 1
1571 2080 1
1571 3099 1
1571 147 1
1571 1547 1
1571 3181 1
1571 529 1
1571 2145 1
1571 1116 1
1571 3095 1
1571 3630 1
1571 3600 1
1571 3162 1
1565 3073 1
1565 2 1
1565 2571 1
1565 3586 1
1565 533 1
1565 3075 1
1565 518 1
1565 1026 1
1565 1647 1
1565 2568 1
1565 519 1
1565 2562 1
1565 11 1
1565 532 1
1565 2064 1
1565 2114 1
1565 2639 1
1565 18 1
1565 524 1
1565 3158 1
1565 33 1
1565 1098 1
1565 2158 1
1565 550 1
1565 3587 1
1565 3147 1
1565 19 1
1565 1066 1
1565 2574 1
1565 1054 1
1565 61 1
1565 1118 1
1565 136 1
2093 1 1
2093 1537 1
2093 1025 1
2093 22 1
2093 1546 1
2093 3076 1
2093 1630 1
2093 1045 1
2093 1556 1
2093 2099 1
2093 3590 1
2093 527 1
2093 661 1
2093 3634 1
2093 2744 1
2093 3610 1
2093 2695 1
3595 2 1
3595 1541 1
3595 3 1
3595 1537 1
3595 518 1
3595 1559 1
3595 1077 1
3595 1026 1
3595 2564 1
3595 3119 1
3595 1539 1
3595 2643 1
3595 16 1
3595 544 1
3595 3611 1
3595 1657 1
3595 513 1
3595 3616 1
3595 3168 1
3595 2151 1
3595 1153 1
3595 1561 1
3595 2110 1
3595 517 1
3595 2586 1
3595 72 1
3595 1554 1
3595 3607 1
3595 1083 1
3595 37 1
3595 1095 1
3595 2561 1
3595 1032 1
3595 1558 1
3595 2567 1
3595 25 1
3595 3589 1
3595 2063 1
3595 3098 1
3595 3188 1
3595 2597 1
3595 3114 1
3595 2839 1
3595 3139 1
3595 1151 1
1590 1 1
1590 2049 1
1590 3586 1
1590 1545 1
1590 1538 1
1590 5 1
1590 2051 1
1590 2562 1
1590 3602 1
1590 2637 1
1590 66 1
1590 2081 1
1590 2052 1
1590 3589 1
1632 3073 1
1632 1027 1
1632 524 1
1632 36 1
1632 1615 1
1632 560 1
1632 227 1
1648 1537 1
1648 50 1
1648 1196 1
1648 522 1
1648 112 1
1648 2574 1
3085 1 1
3085 2050 1
3085 2049 1
3085 3074 1
3085 1538 1
3085 1574 1
3085 1537 1
3085 3075 1
3085 1564 1
3085 589 1
3085 547 1
3085 2588 1
3085 3653 1
3085 2590 1
3085 1546 1
3085 3115 1
3085 2066 1
3085 2562 1
3085 1027 1
3085 11 1
3085 2132 1
3085 3120 1
3085 536 1
3085 3126 1
3085 1848 1
3085 71 1
3085 3585 1
3085 1063 1
3085 49 1
3085 1168 1
3085 1145 1
3085 1586 1
3085 3131 1
3085 1031 1
3085 1057 1
3085 2052 1
3085 3589 1
3085 538 1
3085 35 1
3085 3110 1
3085 1591 1
3085 2645 1
3085 671 1
3085 1202 1
40 1030 1
40 1545 1
40 3077 1
40 521 1
40 1644 1
40 3595 1
40 1025 1
40 535 1
40 3601 1
40 2067 1
40 3590 1
40 1035 1
40 2561 1
40 2565 1
40 3095 1
40 3672 1
40 3114 1
40 229 1
3632 3073 1
3632 3586 1
3632 1538 1
3632 1026 1
3632 2564 1
3632 3595 1
3632 1025 1
3632 616 1
3632 528 1
3632 2065 1
3632 3585 1
3632 1563 1
3632 3123 1
3632 3590 1
3632 2616 1
2208 3595 1
2208 519 1
2208 1114 1
2208 2834 1
1666 2714 1
1666 515 1
1666 2561 1
1666 25 1
1666 3129 1
1850 2561 1
685 3073 1
685 2564 1
685 3605 1
2746 2569 1
2746 2588 1
1537 1 1
1537 2050 1
1537 2049 1
1537 3591 1
1537 3074 1
1537 2566 1
1537 1030 1
1537 38 1
1537 3073 1
1537 2 1
1537 1542 1
1537 2571 1
1537 3586 1
1537 1541 1
1537 3 1
1537 7 1
1537 2078 1
1537 3621 1
1537 533 1
1537 1538 1
1537 3592 1
1537 3077 1
1537 14 1
1537 523 1
1537 3608 1
1537 63 1
1537 3079 1
1537 534 1
1537 2082 1
1537 3100 1
1537 1073 1
1537 2058 1
1537 3205 1
1537 3084 1
1537 516 1
1537 3078 1
1537 2062 1
1537 514 1
1537 1085 1
1537 3075 1
1537 526 1
1537 3086 1
1537 518 1
1537 2077 1
1537 103 1
1537 95 1
1537 1026 1
1537 2564 1
1537 2569 1
1537 1544 1
1537 1062 1
1537 2073 1
1537 3599 1
1537 53 1
1537 5 1
1537 2070 1
1537 1548 1
1537 2155 1
1537 17 1
1537 539 1
1537 2140 1
1537 3641 1
1537 3081 1
1537 16 1
1537 1565 1
1537 2129 1
1537 2609 1
1537 1644 1
1537 3595 1
1537 3675 1
1537 537 1
1537 2634 1
1537 3633 1
1537 1025 1
1537 3080 1
1537 2054 1
1537 1543 1
1537 3588 1
1537 1043 1
1537 1142 1
1537 2051 1
1537 2590 1
1537 615 1
1537 1546 1
1537 531 1
1537 3601 1
1537 3618 1
1537 2094 1
1537 2116 1
1537 721 1
1537 8 1
1537 2121 1
1537 2122 1
1537 1657 1
1537 1187 1
1537 632 1
1537 1193 1
1537 520 1
1537 1553 1
1537 2115 1
1537 1105 1
1537 623 1
1537 3667 1
1537 1071 1
1537 2654 1
1537 911 1
1537 513 1
1537 2055 1
1537 2568 1
1537 3082 1
1537 1568 1
1537 3076 1
1537 519 1
1537 32 1
1537 1046 1
1537 1592 1
1537 2693 1
1537 2562 1
1537 12 1
1537 2086 1
1537 1072 1
1537 1027 1
1537 3168 1
1537 2638 1
1537 48 1
1537 3120 1
1537 2057 1
1537 3096 1
1537 536 1
1537 1034 1
1537 1088 1
1537 157 1
1537 50 1
1537 156 1
1537 515 1
1537 3088 1
1537 1674 1
1537 1555 1
1537 56 1
1537 2146 1
1537 1769 1
1537 833 1
1537 18 1
1537 62 1
1537 801 1
1537 52 1
1537 1213 1
1537 3585 1
1537 524 1
1537 517 1
1537 2570 1
1537 2106 1
1537 522 1
1537 1038 1
1537 1148 1
1537 57 1
1537 1029 1
1537 2586 1
1537 3602 1
1537 2650 1
1537 1233 1
1537 2056 1
1537 2123 1
1537 3622 1
1537 3594 1
1537 21 1
1537 3596 1
1537 3136 1
1537 1582 1
1537 131 1
1537 2053 1
1537 1110 1
1537 2080 1
1537 2100 1
1537 763 1
1537 1082 1
1537 2860 1
1537 3099 1
1537 2099 1
1537 942 1
1537 180 1
1537 954 1
1537 3590 1
1537 2587 1
1537 1035 1
1537 3117 1
1537 1090 1
1537 2576 1
1537 1097 1
1537 2765 1
1537 3180 1
1537 2886 1
1537 274 1
1537 2881 1
1537 2186 1
1537 668 1
1537 3345 1
1537 15 1
1537 1916 1
1537 1922 1
1537 664 1
1537 2561 1
1537 1031 1
1537 1032 1
1537 1558 1
1537 3587 1
1537 2068 1
1537 1028 1
1537 530 1
1537 542 1
1537 3091 1
1537 1628 1
1537 1184 1
1537 2565 1
1537 109 1
1537 2052 1
1537 25 1
1537 3670 1
1537 2575 1
1537 1549 1
1537 529 1
1537 2789 1
1537 1143 1
1537 3589 1
1537 1060 1
1537 3613 1
1537 19 1
1537 1050 1
1537 3655 1
1537 2063 1
1537 3626 1
1537 595 1
1537 4 1
1537 2574 1
1537 611 1
1537 2061 1
1537 644 1
1537 1552 1
1537 1188 1
1537 2629 1
1537 2763 1
1537 2184 1
1537 1598 1
1537 878 1
1537 3674 1
1537 538 1
1537 1600 1
1537 1056 1
1537 2816 1
1537 2577 1
1537 765 1
1537 2668 1
1537 744 1
1537 603 1
1537 1064 1
1537 1067 1
1537 1540 1
1537 3623 1
1537 3089 1
1537 3130 1
1537 1200 1
1537 2111 1
1537 540 1
1537 2651 1
1537 1585 1
1537 549 1
1537 3628 1
1537 2280 1
1537 1024 1
1537 3110 1
1537 3137 1
1537 2251 1
1537 2225 1
1537 3288 1
1537 842 1
1537 255 1
1537 1685 1
1537 3249 1
1537 2717 1
1537 3224 1
1537 3162 1
1537 2182 1
1537 1179 1
1537 3328 1
1537 852 1
1537 1868 1
517 1 1
517 2049 1
517 3074 1
517 2 1
517 1053 1
517 3586 1
517 1541 1
517 3 1
517 2595 1
517 1545 1
517 525 1
517 1538 1
517 63 1
517 3100 1
517 1537 1
517 3078 1
517 526 1
517 2563 1
517 518 1
517 3087 1
517 2564 1
517 1544 1
517 521 1
517 891 1
517 1548 1
517 17 1
517 539 1
517 1565 1
517 2661 1
517 1025 1
517 3080 1
517 2054 1
517 1543 1
517 3588 1
517 1049 1
517 1043 1
517 2051 1
517 2627 1
517 1672 1
517 3671 1
517 3631 1
517 2074 1
517 2622 1
517 3105 1
517 2632 1
517 684 1
517 3211 1
517 513 1
517 2568 1
517 3076 1
517 1027 1
517 11 1
517 528 1
517 3233 1
517 2057 1
517 3226 1
517 76 1
517 1798 1
517 515 1
517 10 1
517 1042 1
517 62 1
517 3585 1
517 517 1
517 522 1
517 1029 1
517 2658 1
517 6 1
517 1615 1
517 810 1
517 1560 1
517 1035 1
517 1554 1
517 3607 1
517 1662 1
517 2060 1
517 15 1
517 1963 1
517 2096 1
517 718 1
517 1028 1
517 3147 1
517 3091 1
517 2084 1
517 29 1
517 2641 1
517 2052 1
517 3176 1
517 1637 1
517 3613 1
517 1050 1
517 2063 1
517 2088 1
517 176 1
517 3095 1
517 2636 1
517 3600 1
517 538 1
517 2180 1
517 2101 1
517 1155 1
517 2311 1
517 1012 1
517 35 1
517 1603 1
517 2276 1
517 3139 1
517 226 1
517 2128 1
517 1799 1
7 1 1
7 2049 1
7 3074 1
7 1030 1
7 3073 1
7 2571 1
7 3586 1
7 3 1
7 1545 1
7 1538 1
7 3592 1
7 3077 1
7 14 1
7 2591 1
7 1537 1
7 516 1
7 1085 1
7 3086 1
7 1852 1
7 1026 1
7 2564 1
7 3097 1
7 5 1
7 3653 1
7 3081 1
7 1025 1
7 3080 1
7 34 1
7 22 1
7 1055 1
7 1049 1
7 1569 1
7 2590 1
7 2593 1
7 1546 1
7 2578 1
7 2069 1
7 520 1
7 3105 1
7 513 1
7 2055 1
7 3076 1
7 3102 1
7 1027 1
7 2114 1
7 2057 1
7 3083 1
7 42 1
7 515 1
7 3088 1
7 100 1
7 3585 1
7 2570 1
7 2106 1
7 522 1
7 2573 1
7 1029 1
7 2650 1
7 1059 1
7 3594 1
7 3596 1
7 1172 1
7 1616 1
7 1037 1
7 1705 1
7 2576 1
7 1662 1
7 181 1
7 2060 1
7 2187 1
7 1954 1
7 15 1
7 1031 1
7 3181 1
7 2565 1
7 2084 1
7 3193 1
7 2052 1
7 2790 1
7 64 1
7 3155 1
7 1189 1
7 3175 1
7 3676 1
7 3098 1
7 1084 1
7 3593 1
7 3668 1
7 2577 1
7 40 1
7 2160 1
7 58 1
7 3236 1
7 1540 1
7 2111 1
7 563 1
7 1687 1
1549 2050 1
1549 3591 1
1549 3073 1
1549 2 1
1549 3586 1
1549 14 1
1549 1537 1
1549 3109 1
1549 1052 1
1549 2563 1
1549 3097 1
1549 5 1
1549 3641 1
1549 1025 1
1549 1543 1
1549 3588 1
1549 2116 1
1549 513 1
1549 3094 1
1549 3090 1
1549 1590 1
1549 2735 1
1549 2065 1
1549 2163 1
1549 2110 1
1549 2119 1
1549 52 1
1549 3585 1
1549 3085 1
1549 1586 1
1549 2587 1
1549 654 1
1549 550 1
1549 574 1
1549 1031 1
1549 1547 1
1549 13 1
1549 2567 1
1549 2731 1
1549 2061 1
1549 1104 1
1549 737 1
1549 1609 1
1549 804 1
1549 713 1
516 1 1
516 2050 1
516 2049 1
516 3074 1
516 2566 1
516 3073 1
516 1542 1
516 3617 1
516 3586 1
516 2078 1
516 1538 1
516 3592 1
516 14 1
516 3079 1
516 2082 1
516 1537 1
516 2563 1
516 1559 1
516 1026 1
516 2564 1
516 1062 1
516 3119 1
516 1539 1
516 2073 1
516 5 1
516 1548 1
516 3641 1
516 1025 1
516 3080 1
516 1043 1
516 3601 1
516 3618 1
516 2185 1
516 3611 1
516 2622 1
516 3157 1
516 513 1
516 3082 1
516 3094 1
516 3076 1
516 2562 1
516 3133 1
516 11 1
516 2064 1
516 3663 1
516 3202 1
516 2057 1
516 536 1
516 1107 1
516 1034 1
516 42 1
516 3126 1
516 3145 1
516 2598 1
516 1113 1
516 3585 1
516 524 1
516 2570 1
516 20 1
516 522 1
516 1557 1
516 1131 1
516 2056 1
516 1059 1
516 1630 1
516 3625 1
516 575 1
516 2218 1
516 1036 1
516 3111 1
516 1594 1
516 3227 1
516 3590 1
516 2655 1
516 146 1
516 1220 1
516 2171 1
516 2682 1
516 2561 1
516 1031 1
516 1032 1
516 3587 1
516 3147 1
516 2567 1
516 2081 1
516 1101 1
516 104 1
516 2565 1
516 2583 1
516 2584 1
516 3589 1
516 1050 1
516 2731 1
516 2063 1
516 4 1
516 2574 1
516 1597 1
516 192 1
516 551 1
516 2579 1
516 3658 1
516 133 1
516 839 1
516 43 1
516 1065 1
516 540 1
516 2642 1
516 1591 1
516 883 1
516 2220 1
516 2147 1
516 2873 1
1058 1 1
1058 2049 1
1058 3073 1
1058 3586 1
1058 1545 1
1058 3077 1
1058 2062 1
1058 2564 1
1058 5 1
1058 1041 1
1058 3588 1
1058 2074 1
1058 513 1
1058 2066 1
1058 3585 1
1058 6 1
1058 1061 1
1058 1035 1
1058 2060 1
1058 2561 1
1058 2567 1
1058 3128 1
1058 3643 1
1058 4 1
1058 2579 1
1058 1118 1
1058 3146 1
1058 1129 1
1058 127 1
2589 1 1
2589 3074 1
2589 2 1
2589 27 1
2589 2572 1
2589 2062 1
2589 3087 1
2589 1026 1
2589 2581 1
2589 1642 1
2589 5 1
2589 3122 1
2589 1025 1
2589 1569 1
2589 3618 1
2589 8 1
2589 520 1
2589 513 1
2589 2083 1
2589 519 1
2589 30 1
2589 515 1
2589 3614 1
2589 23 1
2589 3625 1
2589 2561 1
2589 2081 1
2589 1050 1
2589 1170 1
2589 3221 1
2589 3116 1
2589 3597 1
3637 2050 1
3637 3074 1
3637 1537 1
3637 3078 1
3637 1026 1
3637 1025 1
3637 519 1
3637 3603 1
3637 125 1
3637 1762 1
3637 2053 1
3637 3159 1
3637 2061 1
3637 696 1
1538 1 1
1538 2050 1
1538 3074 1
1538 2566 1
1538 1030 1
1538 3073 1
1538 3586 1
1538 2078 1
1538 3592 1
1538 3077 1
1538 63 1
1538 2082 1
1538 3648 1
1538 1048 1
1538 3084 1
1538 1537 1
1538 3604 1
1538 547 1
1538 2656 1
1538 26 1
1538 1026 1
1538 1544 1
1538 521 1
1538 1573 1
1538 1539 1
1538 5 1
1538 1548 1
1538 17 1
1538 539 1
1538 3127 1
1538 1565 1
1538 2175 1
1538 3595 1
1538 1025 1
1538 3080 1
1538 2109 1
1538 3588 1
1538 1546 1
1538 2578 1
1538 1141 1
1538 648 1
1538 2076 1
1538 1139 1
1538 513 1
1538 3082 1
1538 3598 1
1538 519 1
1538 3603 1
1538 2596 1
1538 3645 1
1538 528 1
1538 1562 1
1538 70 1
1538 1784 1
1538 536 1
1538 1034 1
1538 1666 1
1538 42 1
1538 3150 1
1538 3244 1
1538 515 1
1538 1555 1
1538 3585 1
1538 517 1
1538 2570 1
1538 20 1
1538 2106 1
1538 522 1
1538 2072 1
1538 2586 1
1538 1814 1
1538 112 1
1538 3622 1
1538 1556 1
1538 2053 1
1538 1036 1
1538 1061 1
1538 2239 1
1538 3183 1
1538 2611 1
1538 1083 1
1538 2142 1
1538 2060 1
1538 158 1
1538 1032 1
1538 1558 1
1538 3587 1
1538 2068 1
1538 1547 1
1538 1028 1
1538 13 1
1538 3142 1
1538 2583 1
1538 1632 1
1538 2052 1
1538 630 1
1538 3589 1
1538 54 1
1538 2088 1
1538 1676 1
1538 2117 1
1538 2623 1
1538 1116 1
1538 1140 1
1538 1552 1
1538 1682 1
1538 269 1
1538 761 1
1538 2111 1
1538 2723 1
1538 549 1
1538 2280 1
1538 1129 1
1538 3610 1
1538 3186 1
1538 3597 1
1538 3224 1
1538 2742 1
1538 1571 1
1538 2335 1
1538 1844 1
1040 1 1
1040 3074 1
1040 3073 1
1040 1541 1
1040 1545 1
1040 1538 1
1040 3077 1
1040 3075 1
1040 1559 1
1040 208 1
1040 95 1
1040 1539 1
1040 3599 1
1040 3595 1
1040 1025 1
1040 3080 1
1040 1543 1
1040 1108 1
1040 2083 1
1040 3082 1
1040 2732 1
1040 2065 1
1040 515 1
1040 1113 1
1040 1063 1
1040 522 1
1040 2097 1
1040 2206 1
1040 1887 1
1040 1031 1
1040 1028 1
1040 529 1
1040 4 1
1040 1550 1
1040 151 1
1040 2625 1
1040 1607 1
1040 562 1
1040 853 1
1050 2049 1
1050 3591 1
1050 3074 1
1050 3073 1
1050 3586 1
1050 3084 1
1050 2588 1
1050 1539 1
1050 2054 1
1050 2118 1
1050 520 1
1050 2074 1
1050 2076 1
1050 1046 1
1050 3603 1
1050 1072 1
1050 2615 1
1050 515 1
1050 59 1
1050 18 1
1050 1038 1
1050 568 1
1050 2767 1
1050 199 1
1050 1623 1
1050 585 1
1050 2561 1
1050 2567 1
1050 54 1
1050 2574 1
1050 3634 1
1050 1047 1
1050 1058 1
1050 1572 1
1093 3077 1
1093 2569 1
1093 3631 1
1093 3094 1
1093 532 1
1093 515 1
1093 2119 1
1093 524 1
1093 517 1
1093 3639 1
1093 3188 1
3086 1 1
3086 3073 1
3086 3586 1
3086 523 1
3086 2591 1
3086 1537 1
3086 516 1
3086 2563 1
3086 576 1
3086 2564 1
3086 1539 1
3086 3081 1
3086 2609 1
3086 34 1
3086 2051 1
3086 531 1
3086 3344 1
3086 513 1
3086 2568 1
3086 12 1
3086 3083 1
3086 10 1
3086 3585 1
3086 2072 1
3086 1029 1
3086 1563 1
3086 1059 1
3086 36 1
3086 3171 1
3086 1168 1
3086 3111 1
3086 2750 1
3086 1032 1
3086 3587 1
3086 2565 1
3086 4 1
3086 2811 1
3086 2577 1
3086 149 1
3086 1607 1
3086 2203 1
3086 3610 1
3086 3278 1
2164 2049 1
2164 1544 1
2164 3616 1
2164 1555 1
2164 1560 1
2164 2567 1
1102 2082 1
1102 3076 1
1102 3123 1
1102 1615 1
1102 3589 1
1102 2117 1
1102 3144 1
1102 3112 1
1102 1058 1
1102 1173 1
182 3084 1
182 2086 1
182 524 1
3075 1 1
3075 2050 1
3075 2049 1
3075 3074 1
3075 1030 1
3075 3073 1
3075 2 1
3075 3586 1
3075 3 1
3075 3621 1
3075 2091 1
3075 1538 1
3075 516 1
3075 2062 1
3075 514 1
3075 526 1
3075 3108 1
3075 1026 1
3075 2569 1
3075 5 1
3075 3650 1
3075 2140 1
3075 3595 1
3075 2233 1
3075 1025 1
3075 3080 1
3075 2054 1
3075 34 1
3075 28 1
3075 1055 1
3075 2593 1
3075 3601 1
3075 3671 1
3075 3618 1
3075 46 1
3075 520 1
3075 2580 1
3075 2075 1
3075 513 1
3075 2055 1
3075 3094 1
3075 3076 1
3075 3090 1
3075 2086 1
3075 2612 1
3075 3616 1
3075 2095 1
3075 207 1
3075 1027 1
3075 528 1
3075 555 1
3075 898 1
3075 1103 1
3075 1088 1
3075 904 1
3075 2177 1
3075 3088 1
3075 1186 1
3075 3585 1
3075 2056 1
3075 3612 1
3075 2594 1
3075 3113 1
3075 1659 1
3075 582 1
3075 2053 1
3075 2628 1
3075 1586 1
3075 781 1
3075 1560 1
3075 1587 1
3075 2878 1
3075 1620 1
3075 102 1
3075 3629 1
3075 3607 1
3075 197 1
3075 15 1
3075 2561 1
3075 1032 1
3075 3587 1
3075 1028 1
3075 530 1
3075 3091 1
3075 2630 1
3075 3287 1
3075 2565 1
3075 29 1
3075 2166 1
3075 2583 1
3075 1068 1
3075 25 1
3075 1060 1
3075 64 1
3075 596 1
3075 3092 1
3075 3098 1
3075 2061 1
3075 2217 1
3075 2758 1
3075 3600 1
3075 551 1
3075 538 1
3075 3208 1
3075 2796 1
3075 108 1
3075 1003 1
3075 1540 1
3075 896 1
3075 1599 1
3075 1589 1
3075 2836 1
3075 3610 1
3075 3177 1
3075 554 1
3075 694 1
3075 685 1
3075 2261 1
3075 3218 1
3075 1792 1
2061 1 1
2061 3586 1
2061 1537 1
2061 3078 1
2061 2077 1
2061 1026 1
2061 521 1
2061 3081 1
2061 544 1
2061 1025 1
2061 2051 1
2061 2627 1
2061 1033 1
2061 3104 1
2061 513 1
2061 31 1
2061 12 1
2061 3616 1
2061 528 1
2061 2057 1
2061 3083 1
2061 42 1
2061 2722 1
2061 2582 1
2061 166 1
2061 2573 1
2061 553 1
2061 6 1
2061 37 1
2061 2133 1
2061 2561 1
2061 1028 1
2061 2567 1
2061 3181 1
2061 3142 1
2061 2616 1
2061 1194 1
2061 3626 1
2061 4 1
2061 3658 1
2061 1128 1
2061 35 1
2061 1585 1
2061 2635 1
2083 1 1
2083 2049 1
2083 2571 1
2083 1538 1
2083 534 1
2083 2563 1
2083 26 1
2083 2569 1
2083 2588 1
2083 53 1
2083 3081 1
2083 1025 1
2083 3080 1
2083 2055 1
2083 3598 1
2083 1860 1
2083 42 1
2083 2120 1
2083 845 1
2083 3085 1
2083 1035 1
2083 2567 1
2083 3589 1
2083 1189 1
2083 3175 1
2083 1133 1
2083 1089 1
2083 1591 1
2083 1609 1
3643 1 1
3643 2050 1
3643 3079 1
3643 3084 1
3643 3075 1
3643 515 1
3643 1137 1
3643 3587 1
3643 4 1
3643 1552 1
3643 2605 1
3643 3130 1
3643 1091 1
2597 3591 1
2597 3586 1
2597 1538 1
2597 3100 1
2597 1026 1
2597 521 1
2597 3619 1
2597 3081 1
2597 3080 1
2597 2590 1
2597 1033 1
2597 1108 1
2597 3645 1
2597 2689 1
2597 1633 1
2597 1612 1
2597 2561 1
2597 2068 1
2597 3196 1
2597 3674 1
2597 1540 1
2597 3623 1
2597 35 1
2597 1200 1
2597 1165 1
2597 949 1
91 1 1
91 3075 1
91 1025 1
91 2632 1
91 1160 1
91 3171 1
91 2561 1
91 2649 1
3153 2049 1
3153 3097 1
3153 3599 1
3153 3675 1
3153 18 1
3153 524 1
3153 2594 1
3153 1099 1
3153 916 1
3772 526 1
3772 2561 1
3772 1028 1
29 2049 1
29 38 1
29 1542 1
29 3617 1
29 3153 1
29 1026 1
29 1548 1
29 539 1
29 1025 1
29 2075 1
29 513 1
29 2568 1
29 69 1
29 3645 1
29 532 1
29 524 1
29 3644 1
29 3123 1
29 2685 1
29 2060 1
29 1075 1
29 2747 1
29 530 1
29 1060 1
29 19 1
29 1054 1
29 1226 1
29 1064 1
29 1540 1
29 1058 1
29 1181 1
29 1965 1
1113 1 1
1113 519 1
1113 2562 1
1113 2067 1
1113 1061 1
1113 2850 1
1113 1047 1
1113 3623 1
1113 1605 1
2604 2050 1
2604 3073 1
2604 2569 1
2604 1539 1
2604 513 1
2604 1562 1
2604 3602 1
2604 2628 1
2604 527 1
2604 2583 1
2604 3639 1
2604 3589 1
2604 2592 1
2604 2724 1
2604 114 1
1713 27 1
1713 3642 1
1713 3681 1
61 1 1
61 3073 1
61 1541 1
61 1538 1
61 5 1
61 3076 1
61 1103 1
61 1061 1
61 3613 1
61 1056 1
61 1540 1
61 3130 1
3874 1043 1
1264 1 1
1264 1034 1
1262 1690 1
1262 1540 1
3077 1 1
3077 2050 1
3077 2049 1
3077 3074 1
3077 2566 1
3077 3073 1
3077 3586 1
3077 7 1
3077 3621 1
3077 3173 1
3077 1538 1
3077 14 1
3077 1048 1
3077 2058 1
3077 1537 1
3077 516 1
3077 3087 1
3077 2569 1
3077 1544 1
3077 3103 1
3077 1539 1
3077 2581 1
3077 5 1
3077 3650 1
3077 1025 1
3077 1543 1
3077 1043 1
3077 2051 1
3077 535 1
3077 2621 1
3077 1546 1
3077 531 1
3077 2069 1
3077 3620 1
3077 3115 1
3077 2125 1
3077 520 1
3077 2075 1
3077 513 1
3077 2568 1
3077 1027 1
3077 3606 1
3077 2057 1
3077 92 1
3077 515 1
3077 3088 1
3077 2067 1
3077 936 1
3077 1555 1
3077 3216 1
3077 1755 1
3077 2776 1
3077 3585 1
3077 517 1
3077 1038 1
3077 2072 1
3077 2573 1
3077 1029 1
3077 2637 1
3077 1618 1
3077 1162 1
3077 2287 1
3077 33 1
3077 2709 1
3077 73 1
3077 2053 1
3077 3085 1
3077 2628 1
3077 2858 1
3077 2099 1
3077 2655 1
3077 1098 1
3077 1195 1
3077 181 1
3077 66 1
3077 2561 1
3077 1031 1
3077 13 1
3077 1069 1
3077 165 1
3077 3589 1
3077 2592 1
3077 1640 1
3077 2831 1
3077 4 1
3077 1550 1
3077 601 1
3077 3095 1
3077 1047 1
3077 3600 1
3077 551 1
3077 1668 1
3077 3668 1
3077 3638 1
3077 1089 1
3077 58 1
3077 1299 1
3077 1128 1
3077 106 1
3077 1540 1
3077 540 1
3077 84 1
3077 2800 1
3077 225 1
3077 2300 1
3077 1572 1
3077 203 1
3077 1311 1
3077 3330 1
19 2049 1
19 3073 1
19 1542 1
19 7 1
19 1545 1
19 2058 1
19 514 1
19 3604 1
19 1026 1
19 2581 1
19 2073 1
19 539 1
19 3080 1
19 3588 1
19 2074 1
19 513 1
19 3076 1
19 69 1
19 2098 1
19 2562 1
19 3243 1
19 3614 1
19 1767 1
19 3585 1
19 23 1
19 33 1
19 2244 1
19 1028 1
19 2081 1
19 3091 1
19 3129 1
19 4 1
19 3154 1
19 1682 1
19 1058 1
19 1595 1
19 1605 1
19 80 1
3601 3074 1
3601 1053 1
3601 1026 1
3601 521 1
3601 544 1
3601 3080 1
3601 1566 1
3601 2075 1
3601 3105 1
3601 1071 1
3601 3082 1
3601 3094 1
3601 2562 1
3601 528 1
3601 3184 1
3601 2599 1
3601 2056 1
3601 1199 1
3601 2192 1
3601 2866 1
3601 3590 1
3601 45 1
3601 1095 1
3601 2561 1
3601 25 1
3601 1050 1
3601 2063 1
3601 1054 1
3601 626 1
3601 3634 1
3601 928 1
3601 1171 1
3601 1607 1
3601 2613 1
3601 9 1
3601 969 1
3601 3162 1
3601 1894 1
3601 1611 1
3601 3222 1
1594 1538 1
1594 1026 1
1594 3637 1
1594 8 1
1594 513 1
1594 532 1
1594 3594 1
1594 2080 1
1594 3590 1
1594 1197 1
1594 1128 1
1594 114 1
1594 2147 1
1562 2050 1
1562 1541 1
1562 2585 1
1562 2091 1
1562 1538 1
1562 1537 1
1562 3086 1
1562 1026 1
1562 1025 1
1562 2183 1
1562 513 1
1562 3076 1
1562 3090 1
1562 1562 1
1562 2057 1
1562 1610 1
1562 1633 1
1562 524 1
1562 522 1
1562 2594 1
1562 3158 1
1562 3125 1
1562 618 1
1562 1028 1
1562 2081 1
1562 29 1
1562 2641 1
1562 529 1
1562 1047 1
1562 2180 1
1562 2577 1
1562 44 1
1562 3623 1
1562 1589 1
1562 2191 1
94 1545 1
94 2569 1
94 2074 1
94 3076 1
94 1781 1
94 4 1
94 1598 1
94 1779 1
3693 1049 1
3693 513 1
3693 3088 1
3693 517 1
3693 1066 1
3693 3593 1
3693 2600 1
267 1 1
536 1 1
536 2049 1
536 1030 1
536 3073 1
536 1538 1
536 3075 1
536 3108 1
536 5 1
536 3595 1
536 1025 1
536 2051 1
536 1553 1
536 513 1
536 3106 1
536 2582 1
536 745 1
536 18 1
536 1854 1
536 517 1
536 20 1
536 2573 1
536 2637 1
536 1630 1
536 3594 1
536 1134 1
536 2659 1
536 2053 1
536 2100 1
536 2602 1
536 3589 1
536 3655 1
536 2061 1
536 1047 1
536 3110 1
536 3116 1
1138 3074 1
1138 517 1
1138 1029 1
1138 3099 1
1138 2107 1
1138 4 1
2658 1537 1
2658 1642 1
2658 3082 1
2658 515 1
2658 1557 1
2658 2142 1
2658 2068 1
1715 1 1
1715 3604 1
1715 4 1
1123 3586 1
1123 1537 1
1123 3604 1
1123 520 1
1123 3102 1
1123 1038 1
1123 1070 1
1123 1571 1
3174 3087 1
3174 2069 1
3174 2678 1
3174 2576 1
3174 2733 1
3174 1540 1
2735 1026 1
2735 519 1
2735 1562 1
278 3078 1
2064 1 1
2064 2050 1
2064 2049 1
2064 3074 1
2064 1030 1
2064 3073 1
2064 3592 1
2064 516 1
2064 1052 1
2064 518 1
2064 111 1
2064 2564 1
2064 521 1
2064 3619 1
2064 3659 1
2064 1025 1
2064 2054 1
2064 1543 1
2064 2185 1
2064 2121 1
2064 1027 1
2064 2057 1
2064 3096 1
2064 515 1
2064 3614 1
2064 1087 1
2064 2773 1
2064 3585 1
2064 2071 1
2064 2053 1
2064 1037 1
2064 15 1
2064 2561 1
2064 1028 1
2064 1057 1
2064 1093 1
2064 2061 1
2064 1596 1
2064 1552 1
2064 2649 1
2064 3089 1
3111 1 1
3111 2566 1
3111 2571 1
3111 2091 1
3111 1538 1
3111 1544 1
3111 521 1
3111 1025 1
3111 2622 1
3111 1027 1
3111 2638 1
3111 1785 1
3111 3585 1
3111 2056 1
3111 36 1
3111 1081 1
3111 3095 1
3111 1155 1
3111 3198 1
3111 2111 1
43 1 1
43 2058 1
43 2569 1
43 1546 1
43 3157 1
43 513 1
43 2596 1
43 1042 1
43 1556 1
43 3140 1
43 640 1
43 3587 1
43 2567 1
43 2605 1
43 3635 1
43 2819 1
660 1025 1
660 2570 1
660 1037 1
660 2561 1
3655 1 1
3655 3586 1
3655 1545 1
3655 16 1
3655 3585 1
3655 517 1
3655 2237 1
3655 1634 1
3655 3613 1
3655 3130 1
3655 124 1
3757 2049 1
3757 513 1
3757 4 1
122 1 1
122 117 1
122 3097 1
122 1029 1
122 1560 1
274 3637 1
1584 2049 1
1584 525 1
1584 3077 1
1584 2591 1
1584 28 1
1584 2590 1
1584 1546 1
1584 1102 1
1584 2639 1
1584 20 1
1584 3590 1
1584 1031 1
1584 1550 1
1584 3144 1
1584 760 1
2664 1 1
2664 2692 1
2664 3082 1
2664 3135 1
2664 3605 1
2664 2733 1
1755 6 1
1755 2071 1
273 513 1
1235 1 1
1235 1566 1
3260 155 1
3260 2565 1
2713 214 1
2713 3585 1
2713 1044 1
2713 2068 1
711 1554 1
711 662 1
2562 1 1
2562 2050 1
2562 2049 1
2562 3591 1
2562 3074 1
2562 2566 1
2562 3073 1
2562 2 1
2562 1542 1
2562 3586 1
2562 1541 1
2562 3 1
2562 2595 1
2562 7 1
2562 525 1
2562 1538 1
2562 3592 1
2562 3077 1
2562 523 1
2562 3100 1
2562 2572 1
2562 1048 1
2562 2058 1
2562 2607 1
2562 1537 1
2562 3078 1
2562 514 1
2562 1052 1
2562 1085 1
2562 3075 1
2562 2563 1
2562 3086 1
2562 3624 1
2562 3615 1
2562 1559 1
2562 1551 1
2562 3143 1
2562 2077 1
2562 3289 1
2562 2564 1
2562 2569 1
2562 2588 1
2562 1544 1
2562 521 1
2562 543 1
2562 1539 1
2562 2059 1
2562 2073 1
2562 2643 1
2562 5 1
2562 2070 1
2562 539 1
2562 1109 1
2562 1041 1
2562 2781 1
2562 1565 1
2562 2589 1
2562 1126 1
2562 3633 1
2562 1025 1
2562 3080 1
2562 2054 1
2562 1543 1
2562 22 1
2562 2109 1
2562 3588 1
2562 1648 1
2562 2051 1
2562 535 1
2562 1546 1
2562 531 1
2562 113 1
2562 2617 1
2562 2260 1
2562 2118 1
2562 1033 1
2562 2069 1
2562 67 1
2562 1094 1
2562 3115 1
2562 3105 1
2562 2755 1
2562 907 1
2562 1096 1
2562 2209 1
2562 848 1
2562 1838 1
2562 513 1
2562 2055 1
2562 2568 1
2562 2083 1
2562 3082 1
2562 39 1
2562 1568 1
2562 3076 1
2562 31 1
2562 3598 1
2562 519 1
2562 32 1
2562 1592 1
2562 2734 1
2562 2562 1
2562 12 1
2562 2086 1
2562 3133 1
2562 3616 1
2562 1027 1
2562 532 1
2562 97 1
2562 2263 1
2562 2638 1
2562 48 1
2562 3663 1
2562 2228 1
2562 3679 1
2562 1562 1
2562 2603 1
2562 1652 1
2562 90 1
2562 3148 1
2562 3083 1
2562 42 1
2562 211 1
2562 2065 1
2562 3088 1
2562 2164 1
2562 3614 1
2562 59 1
2562 3232 1
2562 2582 1
2562 1087 1
2562 1635 1
2562 1742 1
2562 1183 1
2562 18 1
2562 1631 1
2562 808 1
2562 3585 1
2562 524 1
2562 517 1
2562 2072 1
2562 1029 1
2562 1563 1
2562 2056 1
2562 3609 1
2562 3135 1
2562 6 1
2562 36 1
2562 2071 1
2562 1613 1
2562 1044 1
2562 21 1
2562 3123 1
2562 2285 1
2562 3596 1
2562 1112 1
2562 2085 1
2562 1206 1
2562 1583 1
2562 2053 1
2562 1617 1
2562 1560 1
2562 2100 1
2562 1587 1
2562 1588 1
2562 2852 1
2562 2766 1
2562 2753 1
2562 2196 1
2562 3590 1
2562 2611 1
2562 527 1
2562 3117 1
2562 1090 1
2562 912 1
2562 2165 1
2562 2248 1
2562 1627 1
2562 3159 1
2562 1948 1
2562 15 1
2562 2133 1
2562 624 1
2562 2682 1
2562 2264 1
2562 2561 1
2562 1031 1
2562 1032 1
2562 1028 1
2562 2567 1
2562 2081 1
2562 542 1
2562 2630 1
2562 3142 1
2562 1101 1
2562 2565 1
2562 1039 1
2562 2602 1
2562 1057 1
2562 1632 1
2562 2052 1
2562 25 1
2562 2575 1
2562 1570 1
2562 3589 1
2562 19 1
2562 2672 1
2562 4 1
2562 2574 1
2562 83 1
2562 2161 1
2562 627 1
2562 2620 1
2562 570 1
2562 714 1
2562 1084 1
2562 1188 1
2562 2184 1
2562 190 1
2562 3593 1
2562 3112 1
2562 2647 1
2562 2597 1
2562 1287 1
2562 79 1
2562 3114 1
2562 3236 1
2562 3165 1
2562 1540 1
2562 3623 1
2562 2092 1
2562 3089 1
2562 1595 1
2562 540 1
2562 2780 1
2562 2204 1
2562 921 1
2562 1074 1
2562 3110 1
2562 3160 1
2562 114 1
2562 592 1
2562 3610 1
2562 2635 1
2562 2645 1
2562 3597 1
2562 593 1
2562 1202 1
2562 710 1
2562 1897 1
2562 3222 1
2562 1571 1
2562 2713 1
2562 2670 1
2562 1775 1
2 1 1
2 2049 1
2 3074 1
2 3073 1
2 1542 1
2 2571 1
2 3586 1
2 3 1
2 2585 1
2 2078 1
2 3153 1
2 1545 1
2 3621 1
2 533 1
2 3077 1
2 523 1
2 3079 1
2 2082 1
2 2058 1
2 2607 1
2 3282 1
2 1537 1
2 516 1
2 3078 1
2 514 1
2 3109 1
2 526 1
2 3087 1
2 1026 1
2 1544 1
2 521 1
2 3619 1
2 2073 1
2 3599 1
2 1548 1
2 3081 1
2 2609 1
2 3080 1
2 2054 1
2 2109 1
2 1569 1
2 2122 1
2 1654 1
2 3105 1
2 513 1
2 2055 1
2 2083 1
2 39 1
2 3076 1
2 519 1
2 2066 1
2 2596 1
2 2562 1
2 3133 1
2 528 1
2 3679 1
2 1562 1
2 3118 1
2 2114 1
2 3134 1
2 1242 1
2 2169 1
2 123 1
2 1633 1
2 101 1
2 818 1
2 3585 1
2 524 1
2 517 1
2 2586 1
2 2056 1
2 3609 1
2 85 1
2 6 1
2 1593 1
2 2071 1
2 3594 1
2 1556 1
2 1650 1
2 1587 1
2 2716 1
2 3590 1
2 2611 1
2 2158 1
2 2339 1
2 2060 1
2 2093 1
2 132 1
2 650 1
2 2561 1
2 1032 1
2 2567 1
2 3181 1
2 29 1
2 2052 1
2 88 1
2 1054 1
2 2117 1
2 2061 1
2 2681 1
2 94 1
2 2636 1
2 3304 1
2 173 1
2 866 1
2 2579 1
2 3674 1
2 3636 1
2 1540 1
2 3647 1
2 540 1
2 153 1
2 3201 1
2 2744 1
2 1165 1
2 270 1
2 689 1
1031 1 1
1031 2050 1
1031 3074 1
1031 3073 1
1031 1542 1
1031 3586 1
1031 7 1
1031 2091 1
1031 1538 1
1031 633 1
1031 1537 1
1031 78 1
1031 2563 1
1031 3108 1
1031 2606 1
1031 518 1
1031 2156 1
1031 1077 1
1031 1026 1
1031 1544 1
1031 1062 1
1031 521 1
1031 537 1
1031 1207 1
1031 1025 1
1031 1543 1
1031 1049 1
1031 2051 1
1031 1546 1
1031 674 1
1031 1033 1
1031 2069 1
1031 3611 1
1031 143 1
1031 3115 1
1031 513 1
1031 2568 1
1031 3082 1
1031 3090 1
1031 2689 1
1031 11 1
1031 532 1
1031 2603 1
1031 3120 1
1031 555 1
1031 2120 1
1031 3170 1
1031 3585 1
1031 20 1
1031 2072 1
1031 2586 1
1031 3609 1
1031 2594 1
1031 3657 1
1031 6 1
1031 2071 1
1031 2618 1
1031 2287 1
1031 21 1
1031 1556 1
1031 817 1
1031 796 1
1031 219 1
1031 1036 1
1031 3085 1
1031 1616 1
1031 1164 1
1031 1119 1
1031 3159 1
1031 2133 1
1031 1120 1
1031 1032 1
1031 3587 1
1031 1028 1
1031 2567 1
1031 2088 1
1031 672 1
1031 4 1
1031 2574 1
1031 2195 1
1031 620 1
1031 2597 1
1031 1089 1
1031 79 1
1031 1540 1
1031 1581 1
1031 3229 1
1031 3255 1
1031 1144 1
1031 144 1
1031 1273 1
1031 2825 1
1031 1290 1
1031 2213 1
1031 1687 1
1031 1924 1
1031 1611 1
2080 1 1
2080 2049 1
2080 1030 1
2080 3073 1
2080 3084 1
2080 633 1
2080 1564 1
2080 3108 1
2080 1026 1
2080 41 1
2080 1209 1
2080 1033 1
2080 3082 1
2080 3076 1
2080 2562 1
2080 3606 1
2080 1562 1
2080 1034 1
2080 3594 1
2080 2218 1
2080 3111 1
2080 2150 1
2080 2561 1
2080 2052 1
2080 1636 1
2080 529 1
2080 3589 1
2080 2063 1
2080 1266 1
2080 2160 1
2080 3130 1
2080 2128 1
2055 1 1
2055 2050 1
2055 2049 1
2055 3074 1
2055 2566 1
2055 3073 1
2055 3586 1
2055 2078 1
2055 1545 1
2055 3173 1
2055 1538 1
2055 3592 1
2055 523 1
2055 3107 1
2055 1537 1
2055 516 1
2055 3075 1
2055 1670 1
2055 518 1
2055 2601 1
2055 1026 1
2055 2564 1
2055 2569 1
2055 1062 1
2055 521 1
2055 543 1
2055 1573 1
2055 1539 1
2055 2073 1
2055 3599 1
2055 5 1
2055 539 1
2055 537 1
2055 1025 1
2055 2054 1
2055 1543 1
2055 3588 1
2055 2051 1
2055 2799 1
2055 3601 1
2055 2069 1
2055 1566 1
2055 3104 1
2055 1096 1
2055 513 1
2055 2055 1
2055 2066 1
2055 2562 1
2055 3102 1
2055 1072 1
2055 1127 1
2055 3606 1
2055 2603 1
2055 2057 1
2055 1561 1
2055 3240 1
2055 3660 1
2055 2167 1
2055 515 1
2055 2163 1
2055 1087 1
2055 2791 1
2055 1135 1
2055 789 1
2055 18 1
2055 100 1
2055 2223 1
2055 1137 1
2055 3585 1
2055 2056 1
2055 553 1
2055 49 1
2055 6 1
2055 3171 1
2055 1167 1
2055 2190 1
2055 2053 1
2055 3607 1
2055 2665 1
2055 2633 1
2055 2262 1
2055 1031 1
2055 1032 1
2055 1558 1
2055 1028 1
2055 542 1
2055 2583 1
2055 2052 1
2055 2701 1
2055 1050 1
2055 118 1
2055 2807 1
2055 3305 1
2055 40 1
2055 3658 1
2055 3114 1
2055 110 1
2055 677 1
2055 2128 1
2055 1734 1
1053 1 1
1053 2049 1
1053 3074 1
1053 1537 1
1053 514 1
1053 2569 1
1053 1544 1
1053 17 1
1053 535 1
1053 1033 1
1053 1141 1
1053 1643 1
1053 2612 1
1053 1027 1
1053 1153 1
1053 2169 1
1053 123 1
1053 18 1
1053 2106 1
1053 1029 1
1053 2079 1
1053 2053 1
1053 3093 1
1053 2084 1
1053 529 1
1053 3613 1
1053 1678 1
1053 1552 1
1053 3593 1
1053 2647 1
1053 1595 1
1053 1723 1
3617 2050 1
3617 2049 1
3617 38 1
3617 3073 1
3617 3586 1
3617 2572 1
3617 518 1
3617 531 1
3617 520 1
3617 2076 1
3617 3204 1
3617 3603 1
3617 3134 1
3617 1557 1
3617 3657 1
3617 2090 1
3617 3085 1
3617 1554 1
3617 3607 1
3617 2205 1
3617 1689 1
3617 2093 1
3617 2193 1
3617 2561 1
3617 1028 1
3617 2567 1
3617 987 1
3617 2161 1
3617 3623 1
3617 2746 1
3617 1190 1
2182 2 1
2182 519 1
2182 2107 1
2182 2262 1
2182 29 1
2569 1 1
2569 2050 1
2569 3591 1
2569 3074 1
2569 1030 1
2569 2 1
2569 3586 1
2569 3 1
2569 1538 1
2569 3592 1
2569 3079 1
2569 3107 1
2569 3121 1
2569 516 1
2569 3075 1
2569 3086 1
2569 3624 1
2569 1551 1
2569 3087 1
2569 2601 1
2569 1026 1
2569 2564 1
2569 2569 1
2569 1544 1
2569 3097 1
2569 3599 1
2569 1041 1
2569 41 1
2569 3595 1
2569 1025 1
2569 1543 1
2569 2051 1
2569 535 1
2569 3631 1
2569 1040 1
2569 1033 1
2569 1982 1
2569 513 1
2569 2083 1
2569 3076 1
2569 3090 1
2569 2126 1
2569 519 1
2569 3102 1
2569 2610 1
2569 3606 1
2569 1652 1
2569 1786 1
2569 59 1
2569 517 1
2569 1063 1
2569 1029 1
2569 1130 1
2569 23 1
2569 3594 1
2569 33 1
2569 105 1
2569 2659 1
2569 2053 1
2569 3085 1
2569 2100 1
2569 2108 1
2569 2104 1
2569 2587 1
2569 2576 1
2569 1097 1
2569 2060 1
2569 3159 1
2569 1667 1
2569 585 1
2569 1031 1
2569 1032 1
2569 3587 1
2569 2068 1
2569 2567 1
2569 542 1
2569 2565 1
2569 1039 1
2569 2602 1
2569 3605 1
2569 91 1
2569 3589 1
2569 1576 1
2569 2061 1
2569 3630 1
2569 3593 1
2569 2597 1
2569 2724 1
2569 540 1
2569 2273 1
2569 1881 1
2569 3162 1
2569 1756 1
2085 1 1
2085 3074 1
2085 1541 1
2085 7 1
2085 2591 1
2085 1026 1
2085 1544 1
2085 2589 1
2085 1025 1
2085 3667 1
2085 3230 1
2085 2055 1
2085 2596 1
2085 59 1
2085 524 1
2085 838 1
2085 3085 1
2085 1586 1
2085 3132 1
2085 1070 1
2085 3587 1
2085 2822 1
2085 3593 1
2085 2138 1
2085 3114 1
2085 153 1
2085 1074 1
22 1 1
22 2050 1
22 2049 1
22 1030 1
22 3073 1
22 2 1
22 1541 1
22 3 1
22 3079 1
22 3078 1
22 2062 1
22 1649 1
22 2692 1
22 521 1
22 1539 1
22 1076 1
22 2593 1
22 2580 1
22 10 1
22 89 1
22 18 1
22 3585 1
22 2570 1
22 3602 1
22 3594 1
22 21 1
22 2685 1
22 1164 1
22 3590 1
22 1035 1
22 2561 1
22 2131 1
22 4 1
22 2681 1
22 1133 1
22 2138 1
2133 3586 1
2133 1543 1
2133 3588 1
2133 1029 1
2133 3099 1
2133 1550 1
2133 2600 1
2133 1591 1
2133 1609 1
3107 1 1
3107 3591 1
3107 3586 1
3107 1538 1
3107 2572 1
3107 3624 1
3107 3087 1
3107 2564 1
3107 1647 1
3107 1041 1
3107 1076 1
3107 2662 1
3107 513 1
3107 2086 1
3107 2167 1
3107 2067 1
3107 1555 1
3107 809 1
3107 1867 1
3107 3612 1
3107 3327 1
3107 2130 1
3107 2682 1
3107 542 1
3107 1637 1
3107 3129 1
3107 675 1
3107 2605 1
1081 3591 1
1081 3073 1
1081 2091 1
1081 3075 1
1081 1544 1
1081 2051 1
1081 519 1
1081 3106 1
1081 1027 1
1081 2603 1
1081 1110 1
1081 2107 1
1081 2561 1
2600 2050 1
2600 3617 1
2600 1541 1
2600 525 1
2600 1538 1
2600 2058 1
2600 514 1
2600 3588 1
2600 1974 1
2600 2168 1
2600 166 1
2600 3585 1
2600 1563 1
2600 1036 1
2600 1677 1
2600 1552 1
2600 79 1
2600 2872 1
1645 3633 1
1645 1025 1
1645 37 1
1645 2052 1
1645 849 1
1645 3221 1
2051 1 1
2051 2050 1
2051 2049 1
2051 3591 1
2051 3074 1
2051 1030 1
2051 1542 1
2051 3586 1
2051 2585 1
2051 525 1
2051 1538 1
2051 534 1
2051 3100 1
2051 2058 1
2051 514 1
2051 3075 1
2051 3604 1
2051 1564 1
2051 526 1
2051 2606 1
2051 518 1
2051 1026 1
2051 1544 1
2051 3097 1
2051 3161 1
2051 16 1
2051 2129 1
2051 2631 1
2051 2589 1
2051 1025 1
2051 3080 1
2051 1543 1
2051 1043 1
2051 1033 1
2051 647 1
2051 635 1
2051 520 1
2051 2580 1
2051 2075 1
2051 3157 1
2051 1105 1
2051 1071 1
2051 3104 1
2051 3270 1
2051 3082 1
2051 3090 1
2051 2098 1
2051 1121 1
2051 1641 1
2051 1027 1
2051 528 1
2051 2057 1
2051 885 1
2051 2163 1
2051 2199 1
2051 2582 1
2051 1555 1
2051 785 1
2051 867 1
2051 20 1
2051 522 1
2051 3602 1
2051 1059 1
2051 49 1
2051 6 1
2051 36 1
2051 2071 1
2051 1044 1
2051 1614 1
2051 1586 1
2051 3673 1
2051 2752 1
2051 1554 1
2051 2576 1
2051 653 1
2051 1197 1
2051 3195 1
2051 3341 1
2051 2561 1
2051 3587 1
2051 1547 1
2051 1028 1
2051 2567 1
2051 1039 1
2051 2052 1
2051 3605 1
2051 2575 1
2051 4 1
2051 2574 1
2051 1550 1
2051 1596 1
2051 2217 1
2051 3630 1
2051 1084 1
2051 1140 1
2051 551 1
2051 1133 1
2051 3208 1
2051 1602 1
2051 2600 1
2051 161 1
2051 599 1
2051 1064 1
2051 1575 1
2051 3215 1
2051 1540 1
2051 3089 1
2051 1595 1
2051 540 1
2051 1253 1
2051 3110 1
2051 1205 1
2051 3249 1
2051 1611 1
2051 562 1
533 2049 1
533 1538 1
533 3077 1
533 14 1
533 1052 1
533 518 1
533 1559 1
533 5 1
533 3081 1
533 28 1
533 2627 1
533 2617 1
533 2663 1
533 2074 1
533 77 1
533 513 1
533 519 1
533 2610 1
533 2114 1
533 1130 1
533 6 1
533 3596 1
533 2666 1
533 2576 1
533 2107 1
533 3587 1
533 1547 1
533 1184 1
533 2575 1
533 4 1
533 3098 1
533 3191 1
533 2579 1
533 1668 1
533 2733 1
533 540 1
533 1884 1
2059 1 1
2059 2050 1
2059 3074 1
2059 2566 1
2059 3073 1
2059 3586 1
2059 523 1
2059 2591 1
2059 1026 1
2059 5 1
2059 1644 1
2059 1025 1
2059 3588 1
2059 3204 1
2059 2139 1
2059 3082 1
2059 519 1
2059 1027 1
2059 2057 1
2059 3096 1
2059 1042 1
2059 1029 1
2059 3171 1
2059 3594 1
2059 2053 1
2059 594 1
2059 1097 1
2059 2561 1
2059 3093 1
2059 1101 1
2059 1122 1
2059 1066 1
2059 3626 1
2059 3634 1
2059 3154 1
2059 2579 1
2059 2245 1
2059 1064 1
2059 3089 1
2059 9 1
2059 3597 1
2059 80 1
2059 2182 1
2059 2089 1
2059 2713 1
1621 1538 1
1621 1539 1
1621 2593 1
1621 513 1
1621 1072 1
1621 2110 1
1621 809 1
1621 2658 1
1621 2561 1
1048 1 1
1048 2050 1
1048 3591 1
1048 1030 1
1048 2082 1
1048 3100 1
1048 1574 1
1048 1537 1
1048 514 1
1048 1559 1
1048 1026 1
1048 2564 1
1048 1544 1
1048 28 1
1048 2051 1
1048 3601 1
1048 520 1
1048 2211 1
1048 74 1
1048 513 1
1048 3076 1
1048 2113 1
1048 1034 1
1048 1087 1
1048 3585 1
1048 517 1
1048 1119 1
1048 2165 1
1048 2052 1
1048 3655 1
1048 1054 1
1048 2604 1
1048 2687 1
1048 1540 1
1048 2089 1
3668 1048 1
3668 3619 1
3668 2755 1
3668 515 1
3668 3585 1
3668 1029 1
3668 3135 1
3668 3140 1
3668 2561 1
3668 2068 1
2130 1052 1
2130 103 1
2130 5 1
2130 1025 1
2130 3080 1
2130 524 1
2130 1029 1
2130 1174 1
2130 2561 1
2130 2052 1
1180 1 1
1180 2070 1
1180 3587 1
1180 1067 1
1037 2050 1
1037 2566 1
1037 38 1
1037 3073 1
1037 1053 1
1037 27 1
1037 1545 1
1037 14 1
1037 523 1
1037 1537 1
1037 3604 1
1037 1649 1
1037 2564 1
1037 1544 1
1037 521 1
1037 3653 1
1037 3199 1
1037 2069 1
1037 3076 1
1037 32 1
1037 11 1
1037 1213 1
1037 905 1
1037 517 1
1037 600 1
1037 3594 1
1037 21 1
1037 2053 1
1037 2100 1
1037 1082 1
1037 2720 1
1037 2205 1
1037 1195 1
1037 37 1
1037 2633 1
1037 2052 1
1037 1550 1
1037 2061 1
1037 1099 1
1037 3593 1
1037 540 1
1037 2267 1
1619 2058 1
1619 1026 1
1619 2578 1
1619 2064 1
1619 3585 1
1619 1059 1
1619 3152 1
1619 2088 1
1619 1179 1
2098 2 1
2098 3077 1
2098 1537 1
2098 3108 1
2098 3588 1
2098 76 1
2098 515 1
2098 3627 1
2098 21 1
2098 3099 1
2098 3587 1
2098 60 1
2098 3169 1
2098 2579 1
2098 2635 1
641 1108 1
641 515 1
641 85 1
641 2063 1
641 3302 1
3674 2571 1
3674 2585 1
3674 2661 1
3674 1543 1
3674 6 1
3674 1134 1
3674 1619 1
3674 2561 1
3674 3597 1
1274 1025 1
2272 516 1
2272 513 1
519 1 1
519 2050 1
519 2049 1
519 3591 1
519 3074 1
519 3073 1
519 1053 1
519 2571 1
519 3586 1
519 1541 1
519 533 1
519 1538 1
519 3592 1
519 3608 1
519 63 1
519 3100 1
519 2619 1
519 1537 1
519 3078 1
519 2062 1
519 514 1
519 3109 1
519 1052 1
519 3075 1
519 2563 1
519 3652 1
519 518 1
519 26 1
519 1026 1
519 1544 1
519 2581 1
519 2059 1
519 1642 1
519 41 1
519 1025 1
519 3588 1
519 1055 1
519 2051 1
519 2578 1
519 2260 1
519 1033 1
519 3164 1
519 68 1
519 635 1
519 2889 1
519 513 1
519 3076 1
519 519 1
519 3603 1
519 2610 1
519 2086 1
519 1027 1
519 932 1
519 1561 1
519 90 1
519 3083 1
519 42 1
519 3585 1
519 524 1
519 1063 1
519 522 1
519 2586 1
519 1563 1
519 2056 1
519 2143 1
519 3657 1
519 6 1
519 179 1
519 1584 1
519 2053 1
519 3085 1
519 1061 1
519 2761 1
519 552 1
519 1035 1
519 3607 1
519 1980 1
519 1952 1
519 2561 1
519 1031 1
519 530 1
519 2567 1
519 2565 1
519 2052 1
519 3605 1
519 1634 1
519 1640 1
519 655 1
519 1550 1
519 1552 1
519 107 1
519 1124 1
519 2597 1
519 3189 1
519 1067 1
519 3089 1
519 1603 1
519 3647 1
519 3635 1
519 812 1
519 1611 1
2579 1 1
2579 523 1
2579 1537 1
2579 1026 1
2579 3263 1
2579 539 1
2579 1025 1
2579 1567 1
2579 46 1
2579 77 1
2579 513 1
2579 2055 1
2579 519 1
2579 2057 1
2579 2274 1
2579 1665 1
2579 517 1
2579 1038 1
2579 3644 1
2579 1045 1
2579 3596 1
2579 2085 1
2579 2719 1
2579 3590 1
2579 585 1
2579 1158 1
2579 2561 1
2579 2567 1
2579 2602 1
2579 2063 1
2579 2061 1
2579 1170 1
2579 1289 1
2579 1152 1
2579 1540 1
2579 3623 1
2579 1058 1
2579 1151 1
2571 1 1
2571 2566 1
2571 1030 1
2571 3073 1
2571 2 1
2571 1537 1
2571 516 1
2571 514 1
2571 3075 1
2571 3615 1
2571 2564 1
2571 2270 1
2571 1025 1
2571 1049 1
2571 2590 1
2571 1546 1
2571 1033 1
2571 2069 1
2571 24 1
2571 3190 1
2571 3076 1
2571 3090 1
2571 32 1
2571 2562 1
2571 2086 1
2571 2057 1
2571 1034 1
2571 1555 1
2571 2119 1
2571 18 1
2571 3585 1
2571 2573 1
2571 2587 1
2571 1031 1
2571 1101 1
2571 2084 1
2571 2052 1
2571 3589 1
2571 122 1
2571 3095 1
2571 3593 1
2571 3600 1
2571 538 1
2571 2657 1
2571 2723 1
2571 1227 1
2571 1720 1
2142 1 1
2142 3073 1
2142 1537 1
2142 3082 1
2142 3645 1
2142 735 1
2142 3176 1
2142 2620 1
3602 1 1
3602 3591 1
3602 1053 1
3602 3586 1
3602 3079 1
3602 1537 1
3602 516 1
3602 3075 1
3602 1062 1
3602 1207 1
3602 1217 1
3602 520 1
3602 2055 1
3602 519 1
3602 2066 1
3602 1121 1
3602 171 1
3602 3662 1
3602 2057 1
3602 1034 1
3602 2065 1
3602 51 1
3602 2053 1
3602 129 1
3602 2587 1
3602 3629 1
3602 3607 1
3602 2576 1
3602 1031 1
3602 1032 1
3602 3587 1
3602 1028 1
3602 2565 1
3602 1039 1
3602 2052 1
3602 3605 1
3602 4 1
3602 1550 1
3602 2128 1
578 3591 1
578 3073 1
578 1538 1
578 523 1
578 3084 1
578 3078 1
578 3599 1
578 1025 1
578 2055 1
578 2596 1
578 3585 1
578 1166 1
1600 1030 1
1600 2563 1
1600 518 1
1600 16 1
1600 2568 1
1600 3585 1
1600 2650 1
1600 2766 1
1600 1547 1
1600 2605 1
1600 1149 1
1600 3146 1
1675 1 1
1675 2050 1
1675 1072 1
1675 2053 1
3099 1 1
3099 3591 1
3099 1030 1
3099 3 1
3099 3621 1
3099 1537 1
3099 516 1
3099 3075 1
3099 3615 1
3099 1559 1
3099 1026 1
3099 1544 1
3099 2070 1
3099 1025 1
3099 3080 1
3099 2054 1
3099 2051 1
3099 1040 1
3099 3094 1
3099 12 1
3099 3120 1
3099 3651 1
3099 822 1
3099 2056 1
3099 6 1
3099 1078 1
3099 1577 1
3099 3590 1
3099 2576 1
3099 3587 1
3099 2081 1
3099 4 1
3099 61 1
3099 1596 1
3099 780 1
3628 1 1
3628 2049 1
3628 1030 1
3628 1542 1
3628 3 1
3628 1052 1
3628 1543 1
3628 513 1
3628 528 1
3628 123 1
3628 522 1
3628 2056 1
3628 3274 1
3628 3594 1
3628 1054 1
3628 1013 1
3628 2613 1
3628 3635 1
3675 1 1
3675 3074 1
3675 3077 1
3675 1026 1
3675 1025 1
3675 2055 1
3675 519 1
3675 45 1
3675 40 1
3762 1 1
3762 2051 1
3762 2567 1
3119 2566 1
3119 523 1
3119 3075 1
3119 1076 1
3119 2076 1
3119 517 1
3119 1063 1
3119 2056 1
3119 2108 1
3119 3167 1
3119 2565 1
3119 1039 1
3119 2052 1
3119 2172 1
3119 756 1
637 1 1
637 3102 1
637 1034 1
637 2586 1
637 1051 1
1717 1042 1
1717 573 1
1717 25 1
746 560 1
3101 1 1
3101 2049 1
3101 3592 1
3101 2572 1
3101 3109 1
3101 1026 1
3101 521 1
3101 3619 1
3101 2054 1
3101 22 1
3101 3588 1
3101 2051 1
3101 1094 1
3101 3094 1
3101 3133 1
3101 1027 1
3101 1652 1
3101 1807 1
3101 515 1
3101 3585 1
3101 6 1
3101 3131 1
3101 702 1
3101 1558 1
3101 3093 1
3101 1608 1
3101 3129 1
3101 2579 1
3101 739 1
3101 1607 1
3101 3610 1
3101 134 1
3101 2089 1
557 1545 1
557 3097 1
557 3619 1
557 3127 1
557 513 1
557 2568 1
557 1027 1
557 1107 1
557 1561 1
557 3585 1
557 517 1
557 2053 1
557 1035 1
557 104 1
557 2052 1
557 3605 1
2640 1538 1
2640 1537 1
2640 2563 1
2640 2568 1
2640 800 1
2640 2079 1
2640 3605 1
2640 3670 1
2640 19 1
3294 1545 1
1585 2049 1
1585 2 1
1585 1537 1
1585 2062 1
1585 514 1
1585 3080 1
1585 2054 1
1585 2132 1
1585 1034 1
1585 3602 1
1585 2105 1
1585 1036 1
1585 1558 1
1585 1051 1
1585 2739 1
2686 1538 1
2686 3077 1
2686 3079 1
2686 30 1
2686 957 1
1252 1035 1
1252 1032 1
1253 1 1
1253 1037 1
1133 2049 1
1133 3074 1
1133 523 1
1133 2060 1
1133 679 1
1133 1668 1
1133 837 1
622 520 1
622 513 1
622 2573 1
622 3642 1
622 1028 1
622 1591 1
681 3074 1
681 1026 1
681 515 1
680 1548 1
680 3603 1
680 1089 1
3808 3588 1
3808 2248 1
744 1 1
3081 1 1
3081 2050 1
3081 3591 1
3081 3074 1
3081 2566 1
3081 1030 1
3081 3073 1
3081 2 1
3081 2571 1
3081 27 1
3081 1541 1
3081 3 1
3081 2091 1
3081 1538 1
3081 534 1
3081 3669 1
3081 1537 1
3081 3078 1
3081 526 1
3081 3086 1
3081 3108 1
3081 3624 1
3081 2564 1
3081 2581 1
3081 2589 1
3081 3138 1
3081 1025 1
3081 3080 1
3081 1546 1
3081 3631 1
3081 1655 1
3081 3190 1
3081 2139 1
3081 513 1
3081 2083 1
3081 3076 1
3081 3090 1
3081 519 1
3081 3102 1
3081 2610 1
3081 3616 1
3081 1562 1
3081 70 1
3081 2067 1
3081 2110 1
3081 3163 1
3081 867 1
3081 3585 1
3081 524 1
3081 1038 1
3081 49 1
3081 6 1
3081 3594 1
3081 1036 1
3081 1620 1
3081 1082 1
3081 2853 1
3081 769 1
3081 955 1
3081 3590 1
3081 527 1
3081 45 1
3081 2060 1
3081 1075 1
3081 2561 1
3081 1032 1
3081 3587 1
3081 1547 1
3081 3093 1
3081 2565 1
3081 2602 1
3081 1057 1
3081 2052 1
3081 1570 1
3081 1640 1
3081 3626 1
3081 3676 1
3081 47 1
3081 3593 1
3081 2579 1
3081 3112 1
3081 2691 1
3081 1064 1
3081 1008 1
3081 2651 1
3081 1185 1
3081 3110 1
3081 2225 1
3081 971 1
3081 2309 1
3081 3124 1
3081 563 1
3081 3192 1
3081 1572 1
16 1 1
16 2050 1
16 3591 1
16 3586 1
16 1545 1
16 1538 1
16 2058 1
16 1537 1
16 3149 1
16 1539 1
16 3650 1
16 1025 1
16 1049 1
16 1653 1
16 1033 1
16 24 1
16 2075 1
16 2712 1
16 1218 1
16 3120 1
16 2639 1
16 3614 1
16 1555 1
16 3585 1
16 20 1
16 3594 1
16 1556 1
16 1615 1
16 1061 1
16 1554 1
16 1627 1
16 1075 1
16 3142 1
16 3129 1
16 2112 1
16 3626 1
16 3593 1
16 1601 1
16 1540 1
16 9 1
3100 2049 1
3100 1537 1
3100 516 1
3100 3075 1
3100 1026 1
3100 2051 1
3100 1567 1
3100 1096 1
3100 513 1
3100 2568 1
3100 12 1
3100 1027 1
3100 2057 1
3100 1555 1
3100 541 1
3100 1029 1
3100 2586 1
3100 3612 1
3100 3101 1
3100 3594 1
3100 1044 1
3100 580 1
3100 1560 1
3100 129 1
3100 2216 1
3100 3180 1
3100 2561 1
3100 530 1
3100 2197 1
3100 3098 1
3100 2600 1
3100 2724 1
3100 2208 1
3100 1606 1
1602 3586 1
1602 525 1
1602 1538 1
1602 1537 1
1602 1539 1
1602 531 1
1602 1027 1
1602 65 1
1602 1029 1
1602 1069 1
1602 2592 1
1602 3139 1
1574 1 1
1574 2049 1
1574 3586 1
1574 1538 1
1574 3648 1
1574 2588 1
1574 521 1
1574 5 1
1574 2051 1
1574 2593 1
1574 513 1
1574 1072 1
1574 11 1
1574 515 1
1574 71 1
1574 1661 1
1574 2080 1
1574 1620 1
1574 37 1
1574 2060 1
1574 2101 1
1574 9 1
1574 2705 1
1574 3275 1
3118 1 1
3118 3074 1
3118 1537 1
3118 526 1
3118 2564 1
3118 2054 1
3118 3588 1
3118 1033 1
3118 2580 1
3118 2615 1
3118 2570 1
3118 3227 1
3118 2626 1
3118 3110 1
3118 2252 1
3653 2049 1
3653 27 1
3653 1539 1
3653 531 1
3653 3601 1
3653 3076 1
3653 2562 1
3653 3651 1
3653 2561 1
3653 1550 1
3653 3600 1
3653 1571 1
3170 1538 1
3170 3619 1
3170 2621 1
3170 1071 1
3170 1028 1
3170 2117 1
3170 1058 1
543 1 1
543 2049 1
543 27 1
543 3079 1
543 1026 1
543 543 1
543 1539 1
543 3081 1
543 1546 1
543 513 1
543 2083 1
543 3082 1
543 30 1
543 2153 1
543 2570 1
543 1563 1
543 6 1
543 2079 1
543 1614 1
543 33 1
543 2053 1
543 2176 1
543 2760 1
543 3590 1
543 2561 1
543 1054 1
543 3593 1
543 2101 1
543 1602 1
543 736 1
543 2273 1
543 84 1
1617 1 1
1617 3121 1
1617 1537 1
1617 2059 1
1617 1025 1
1617 1543 1
1617 3083 1
1617 1063 1
1617 3206 1
1617 657 1
3687 1025 1
3687 513 1
3687 3585 1
3687 3612 1
3687 3182 1
3687 3589 1
3687 2771 1
751 3598 1
3128 2050 1
3128 3081 1
3128 1567 1
3128 48 1
3128 157 1
3128 2570 1
3128 36 1
3128 1588 1
3128 3607 1
3128 1097 1
3128 1032 1
3128 108 1
3128 843 1
1137 3074 1
1137 3075 1
1137 1106 1
1137 3585 1
1137 2056 1
1137 1070 1
2784 121 1
524 1 1
524 2050 1
524 2049 1
524 3074 1
524 3586 1
524 1545 1
524 523 1
524 2591 1
524 3121 1
524 2607 1
524 174 1
524 1537 1
524 3075 1
524 3604 1
524 2563 1
524 26 1
524 521 1
524 2593 1
524 3219 1
524 39 1
524 1192 1
524 3145 1
524 522 1
524 2573 1
524 1044 1
524 3596 1
524 855 1
524 2080 1
524 3642 1
524 3629 1
524 3117 1
524 1097 1
524 908 1
524 550 1
524 1032 1
524 1547 1
524 1066 1
524 3626 1
524 1597 1
524 3593 1
524 2577 1
524 820 1
524 1147 1
524 1572 1
1063 2571 1
1063 1538 1
1063 2058 1
1063 3086 1
1063 1551 1
1063 1025 1
1063 2054 1
1063 46 1
1063 77 1
1063 522 1
1063 3612 1
1063 2594 1
1063 33 1
1063 2108 1
1063 2561 1
1063 1031 1
1063 3147 1
1063 2567 1
1063 2584 1
63 3100 1
63 3087 1
63 1025 1
63 1567 1
63 81 1
63 2083 1
63 42 1
63 1042 1
63 1083 1
63 2576 1
63 3643 1
63 3634 1
1181 2562 1
1181 3590 1
1181 3093 1
1181 3589 1
2143 1 1
2143 14 1
2143 1631 1
2143 524 1
2143 2561 1
2143 570 1
2143 3089 1
2143 1147 1
2702 1 1
2702 2588 1
2702 1025 1
2702 1216 1
598 3591 1
598 1537 1
598 1649 1
598 28 1
598 1641 1
598 2561 1
598 3587 1
598 3196 1
598 4 1
1809 2051 1
2659 515 1
2659 3088 1
2659 3607 1
2659 2130 1
2659 2660 1
2659 3252 1
2659 3124 1
1307 1063 1
107 2054 1
107 513 1
107 2053 1
107 3590 1
107 2587 1
107 1032 1
3202 2573 1
3202 1560 1
3202 1075 1
3202 1680 1
3322 517 1
2582 1 1
2582 1542 1
2582 2571 1
2582 1538 1
2582 3608 1
2582 1537 1
2582 2569 1
2582 1544 1
2582 1025 1
2582 3588 1
2582 3637 1
2582 2051 1
2582 2094 1
2582 513 1
2582 2055 1
2582 3094 1
2582 32 1
2582 532 1
2582 515 1
2582 2570 1
2582 522 1
2582 51 1
2582 1613 1
2582 1132 1
2582 1663 1
2582 3629 1
2582 1083 1
2582 2141 1
2582 2561 1
2582 1032 1
2582 542 1
2582 2565 1
2582 2112 1
2582 4 1
2582 2230 1
2582 3593 1
2582 583 1
1091 1 1
1091 2049 1
1091 1537 1
1091 1569 1
1091 1546 1
1091 2074 1
1091 2694 1
1091 1563 1
1091 2071 1
1091 61 1
1091 2647 1
1091 44 1
1635 2050 1
1635 3073 1
1635 516 1
1635 2653 1
1635 1154 1
1635 1029 1
1635 3301 1
623 3074 1
623 1030 1
623 1545 1
623 8 1
623 2068 1
623 1600 1
1586 2049 1
1586 1538 1
1586 1025 1
1586 2183 1
1586 513 1
1586 2598 1
1586 598 1
1586 1068 1
1586 1069 1
1586 3613 1
1586 3593 1
1586 1601 1
1586 786 1
1586 1540 1
3776 3073 1
3776 2568 1
3776 3148 1
1752 1651 1
1752 1112 1
3841 1542 1
3684 2049 1
3684 3074 1
3684 3 1
3684 1026 1
3684 3076 1
3684 1674 1
3684 3092 1
3730 2569 1
3730 17 1
3730 2583 1
3730 1540 1
3213 17 1
3213 1619 1
3213 2720 1
3213 3656 1
1797 3596 1
1185 2049 1
1185 2596 1
1185 42 1
2260 1033 1
2260 3620 1
2259 522 1
2259 2080 1
3630 3074 1
3630 3073 1
3630 2 1
3630 1537 1
3630 1026 1
3630 2676 1
3630 1543 1
3630 3598 1
3630 2610 1
3630 515 1
3630 2119 1
3630 2288 1
3630 2567 1
3630 3630 1
3630 3658 1
3630 2234 1
1182 3073 1
1182 3586 1
1182 2563 1
1182 529 1
2212 3245 1
2212 524 1
2212 1036 1
3743 1542 1
3743 3077 1
3743 976 1
3824 513 1
735 2050 1
735 21 1
2210 2051 1
2210 1555 1
2210 2052 1
2219 2591 1
2219 3092 1
2219 1540 1
3825 1025 1
237 3586 1
2811 522 1
2306 2226 1
1025 1 1
1025 2050 1
1025 2049 1
1025 3591 1
1025 3074 1
1025 3073 1
1025 2 1
1025 1542 1
1025 3586 1
1025 1541 1
1025 3 1
1025 7 1
1025 2078 1
1025 1545 1
1025 3621 1
1025 533 1
1025 2091 1
1025 1538 1
1025 3592 1
1025 3077 1
1025 14 1
1025 523 1
1025 2591 1
1025 3608 1
1025 3079 1
1025 534 1
1025 2082 1
1025 209 1
1025 1073 1
1025 3121 1
1025 2607 1
1025 1537 1
1025 516 1
1025 3078 1
1025 2062 1
1025 514 1
1025 1052 1
1025 1085 1
1025 3075 1
1025 3604 1
1025 2563 1
1025 3086 1
1025 3108 1
1025 2656 1
1025 3615 1
1025 518 1
1025 2077 1
1025 26 1
1025 3087 1
1025 2601 1
1025 170 1
1025 1026 1
1025 2569 1
1025 1544 1
1025 521 1
1025 543 1
1025 2676 1
1025 1539 1
1025 2059 1
1025 1642 1
1025 1017 1
1025 5 1
1025 2070 1
1025 1548 1
1025 3653 1
1025 539 1
1025 1109 1
1025 3081 1
1025 16 1
1025 1644 1
1025 2159 1
1025 544 1
1025 3659 1
1025 1209 1
1025 537 1
1025 546 1
1025 235 1
1025 3080 1
1025 2054 1
1025 1543 1
1025 2109 1
1025 3588 1
1025 1049 1
1025 1180 1
1025 1567 1
1025 535 1
1025 2621 1
1025 1546 1
1025 2578 1
1025 2094 1
1025 2116 1
1025 2617 1
1025 1566 1
1025 67 1
1025 2125 1
1025 520 1
1025 2075 1
1025 1553 1
1025 3646 1
1025 2134 1
1025 616 1
1025 2076 1
1025 74 1
1025 3230 1
1025 3234 1
1025 513 1
1025 2055 1
1025 3082 1
1025 3076 1
1025 3090 1
1025 31 1
1025 2126 1
1025 519 1
1025 32 1
1025 1046 1
1025 3603 1
1025 2734 1
1025 2596 1
1025 3102 1
1025 2086 1
1025 171 1
1025 3106 1
1025 207 1
1025 1027 1
1025 11 1
1025 3606 1
1025 528 1
1025 2228 1
1025 932 1
1025 70 1
1025 2114 1
1025 1034 1
1025 3243 1
1025 30 1
1025 3148 1
1025 42 1
1025 2065 1
1025 2162 1
1025 964 1
1025 1239 1
1025 515 1
1025 3088 1
1025 1111 1
1025 59 1
1025 2120 1
1025 556 1
1025 905 1
1025 3585 1
1025 524 1
1025 517 1
1025 1063 1
1025 2570 1
1025 541 1
1025 2573 1
1025 1156 1
1025 1029 1
1025 3602 1
1025 2105 1
1025 2599 1
1025 1059 1
1025 3101 1
1025 2673 1
1025 6 1
1025 2079 1
1025 1593 1
1025 36 1
1025 2071 1
1025 2194 1
1025 606 1
1025 2743 1
1025 1045 1
1025 1150 1
1025 1556 1
1025 130 1
1025 3596 1
1025 121 1
1025 1580 1
1025 1582 1
1025 1199 1
1025 2085 1
1025 105 1
1025 2659 1
1025 2188 1
1025 73 1
1025 3333 1
1025 2329 1
1025 1586 1
1025 1560 1
1025 1620 1
1025 2716 1
1025 1082 1
1025 3132 1
1025 3099 1
1025 769 1
1025 167 1
1025 1594 1
1025 1663 1
1025 1146 1
1025 872 1
1025 3590 1
1025 1554 1
1025 2665 1
1025 2666 1
1025 2576 1
1025 2633 1
1025 3195 1
1025 187 1
1025 2130 1
1025 1975 1
1025 621 1
1025 727 1
1025 669 1
1025 1959 1
1025 2561 1
1025 1031 1
1025 1032 1
1025 1558 1
1025 3587 1
1025 2131 1
1025 1028 1
1025 530 1
1025 1051 1
1025 1628 1
1025 29 1
1025 1039 1
1025 2166 1
1025 1057 1
1025 1937 1
1025 3639 1
1025 1068 1
1025 2052 1
1025 1549 1
1025 529 1
1025 3589 1
1025 1639 1
1025 1080 1
1025 2063 1
1025 2112 1
1025 1658 1
1025 1066 1
1025 1093 1
1025 1194 1
1025 667 1
1025 4 1
1025 3092 1
1025 3098 1
1025 1550 1
1025 61 1
1025 47 1
1025 2623 1
1025 1596 1
1025 3672 1
1025 3188 1
1025 2195 1
1025 1099 1
1025 3267 1
1025 3593 1
1025 538 1
1025 1600 1
1025 3112 1
1025 1056 1
1025 2577 1
1025 2597 1
1025 744 1
1025 58 1
1025 2208 1
1025 79 1
1025 1171 1
1025 3114 1
1025 861 1
1025 1211 1
1025 3198 1
1025 1540 1
1025 2092 1
1025 3089 1
1025 1065 1
1025 3649 1
1025 540 1
1025 139 1
1025 549 1
1025 1589 1
1025 3110 1
1025 3275 1
1025 110 1
1025 1178 1
1025 3124 1
1025 842 1
1025 201 1
1025 2089 1
1025 2178 1
1025 590 1
1545 1 1
1545 2049 1
1545 3074 1
1545 1542 1
1545 3586 1
1545 2078 1
1545 1545 1
1545 3077 1
1545 3100 1
1545 1537 1
1545 516 1
1545 3078 1
1545 514 1
1545 3075 1
1545 3604 1
1545 2563 1
1545 3108 1
1545 3624 1
1545 1559 1
1545 1551 1
1545 1026 1
1545 2564 1
1545 1539 1
1545 1642 1
1545 539 1
1545 3641 1
1545 3081 1
1545 1025 1
1545 535 1
1545 3611 1
1545 77 1
1545 3646 1
1545 513 1
1545 2083 1
1545 3082 1
1545 3603 1
1545 1121 1
1545 2562 1
1545 2064 1
1545 555 1
1545 3096 1
1545 1088 1
1545 3134 1
1545 2067 1
1545 1196 1
1545 841 1
1545 3585 1
1545 517 1
1545 2570 1
1545 1029 1
1545 1115 1
1545 1556 1
1545 3596 1
1545 3290 1
1545 1650 1
1545 1583 1
1545 1078 1
1545 1037 1
1545 3132 1
1545 1713 1
1545 3590 1
1545 1554 1
1545 1095 1
1545 574 1
1545 658 1
1545 1032 1
1545 3587 1
1545 1547 1
1545 2131 1
1545 13 1
1545 2626 1
1545 2081 1
1545 542 1
1545 1051 1
1545 1628 1
1545 2565 1
1545 2052 1
1545 25 1
1545 3589 1
1545 2088 1
1545 2574 1
1545 3187 1
1545 1552 1
1545 2629 1
1545 256 1
1545 958 1
1545 2605 1
1545 879 1
1545 43 1
1545 1540 1
1545 2092 1
1545 3220 1
1545 3296 1
1545 980 1
1545 802 1
3079 1 1
3079 3591 1
3079 3074 1
3079 2566 1
3079 3073 1
3079 2571 1
3079 3586 1
3079 3592 1
3079 3077 1
3079 1537 1
3079 516 1
3079 1564 1
3079 2563 1
3079 3087 1
3079 1026 1
3079 2564 1
3079 1544 1
3079 539 1
3079 1041 1
3079 3641 1
3079 2609 1
3079 544 1
3079 1671 1
3079 1025 1
3079 22 1
3079 3588 1
3079 1049 1
3079 2051 1
3079 1567 1
3079 1223 1
3079 3618 1
3079 2617 1
3079 2183 1
3079 1040 1
3079 1033 1
3079 520 1
3079 2632 1
3079 2712 1
3079 74 1
3079 2568 1
3079 3082 1
3079 3076 1
3079 3102 1
3079 55 1
3079 1027 1
3079 1103 1
3079 1666 1
3079 515 1
3079 2168 1
3079 1675 1
3079 2678 1
3079 1063 1
3079 2570 1
3079 522 1
3079 2573 1
3079 1059 1
3079 2079 1
3079 3141 1
3079 3594 1
3079 3123 1
3079 1615 1
3079 572 1
3079 2332 1
3079 3085 1
3079 1586 1
3079 552 1
3079 2196 1
3079 1146 1
3079 2187 1
3079 3159 1
3079 2561 1
3079 1031 1
3079 1558 1
3079 3587 1
3079 2068 1
3079 1547 1
3079 1028 1
3079 2602 1
3079 1057 1
3079 2575 1
3079 3246 1
3079 529 1
3079 3172 1
3079 1060 1
3079 99 1
3079 4 1
3079 2574 1
3079 1626 1
3079 3098 1
3079 1047 1
3079 538 1
3079 1056 1
3079 119 1
3079 40 1
3079 3146 1
3079 3215 1
3079 996 1
3079 2651 1
3079 2204 1
3079 2794 1
3079 124 1
3079 1685 1
2593 1 1
2593 1541 1
2593 3100 1
2593 3078 1
2593 526 1
2593 2563 1
2593 1033 1
2593 74 1
2593 2139 1
2593 1568 1
2593 519 1
2593 3645 1
2593 515 1
2593 3088 1
2593 3585 1
2593 3111 1
2593 1061 1
2593 2060 1
2593 1075 1
2593 13 1
2593 2567 1
2593 2583 1
2593 2052 1
2593 3626 1
2593 241 1
2593 58 1
2593 1058 1
2593 1606 1
2593 3597 1
2593 1235 1
1030 1 1
1030 2050 1
1030 2049 1
1030 3073 1
1030 2 1
1030 1542 1
1030 1053 1
1030 2571 1
1030 3586 1
1030 3621 1
1030 1538 1
1030 3077 1
1030 3079 1
1030 534 1
1030 3648 1
1030 1537 1
1030 516 1
1030 2062 1
1030 3604 1
1030 518 1
1030 3087 1
1030 1026 1
1030 2569 1
1030 1544 1
1030 521 1
1030 2640 1
1030 1539 1
1030 2653 1
1030 3122 1
1030 1644 1
1030 3633 1
1030 1025 1
1030 1672 1
1030 2578 1
1030 1033 1
1030 67 1
1030 24 1
1030 2125 1
1030 2756 1
1030 513 1
1030 3082 1
1030 2562 1
1030 1027 1
1030 11 1
1030 532 1
1030 528 1
1030 3202 1
1030 1652 1
1030 1561 1
1030 3083 1
1030 3126 1
1030 1087 1
1030 1744 1
1030 18 1
1030 52 1
1030 3585 1
1030 524 1
1030 517 1
1030 2570 1
1030 1038 1
1030 2573 1
1030 1059 1
1030 3661 1
1030 1045 1
1030 21 1
1030 1578 1
1030 2053 1
1030 2108 1
1030 1037 1
1030 1177 1
1030 1035 1
1030 1098 1
1030 1090 1
1030 1208 1
1030 193 1
1030 3666 1
1030 2561 1
1030 1031 1
1030 13 1
1030 3093 1
1030 2567 1
1030 3091 1
1030 1101 1
1030 2565 1
1030 2583 1
1030 2052 1
1030 3605 1
1030 1060 1
1030 64 1
1030 4 1
1030 1550 1
1030 3593 1
1030 2284 1
1030 2687 1
1030 1058 1
1030 2613 1
1030 3220 1
1030 1247 1
1030 3628 1
1030 3217 1
1030 1165 1
1030 3342 1
3095 1 1
3095 2049 1
3095 1538 1
3095 3592 1
3095 3077 1
3095 1073 1
3095 3078 1
3095 1026 1
3095 1041 1
3095 2054 1
3095 3588 1
3095 1049 1
3095 3667 1
3095 3104 1
3095 3076 1
3095 2562 1
3095 2603 1
3095 90 1
3095 2624 1
3095 2072 1
3095 2056 1
3095 3101 1
3095 3596 1
3095 3156 1
3095 1036 1
3095 1177 1
3095 2158 1
3095 1095 1
3095 2561 1
3095 1032 1
3095 2574 1
3095 1291 1
3095 106 1
3095 3261 1
3095 1540 1
3095 2695 1
539 2050 1
539 3074 1
539 2566 1
539 3079 1
539 2563 1
539 1079 1
539 2581 1
539 2073 1
539 3675 1
539 2253 1
539 520 1
539 116 1
539 1138 1
539 2654 1
539 3104 1
539 519 1
539 11 1
539 3096 1
539 2615 1
539 3585 1
539 541 1
539 2056 1
539 186 1
539 158 1
539 3654 1
539 2063 1
539 3191 1
539 1047 1
539 3638 1
539 44 1
539 40 1
539 1540 1
539 136 1
539 1571 1
3639 1 1
3639 3586 1
3639 2572 1
3639 3075 1
3639 1026 1
3639 2564 1
3639 1025 1
3639 2654 1
3639 1850 1
3639 3585 1
3639 1112 1
3639 3587 1
3639 3299 1
3639 1222 1
1027 1 1
1027 2050 1
1027 2049 1
1027 3591 1
1027 3074 1
1027 1030 1
1027 3073 1
1027 2 1
1027 1542 1
1027 3586 1
1027 1541 1
1027 2595 1
1027 7 1
1027 1538 1
1027 3592 1
1027 14 1
1027 2082 1
1027 2572 1
1027 3107 1
1027 1537 1
1027 516 1
1027 2062 1
1027 3109 1
1027 3075 1
1027 1559 1
1027 1026 1
1027 1544 1
1027 2640 1
1027 3119 1
1027 2059 1
1027 53 1
1027 5 1
1027 1041 1
1027 884 1
1027 2609 1
1027 537 1
1027 1025 1
1027 2054 1
1027 22 1
1027 1645 1
1027 1546 1
1027 1679 1
1027 3611 1
1027 1646 1
1027 3620 1
1027 24 1
1027 513 1
1027 2055 1
1027 3076 1
1027 519 1
1027 2066 1
1027 3616 1
1027 3134 1
1027 75 1
1027 515 1
1027 792 1
1027 18 1
1027 3585 1
1027 517 1
1027 20 1
1027 1029 1
1027 2056 1
1027 1612 1
1027 6 1
1027 3644 1
1027 2618 1
1027 3594 1
1027 21 1
1027 3596 1
1027 2709 1
1027 2646 1
1027 2188 1
1027 584 1
1027 3209 1
1027 2148 1
1027 1035 1
1027 3629 1
1027 527 1
1027 2165 1
1027 1627 1
1027 2060 1
1027 687 1
1027 2127 1
1027 2561 1
1027 1031 1
1027 1032 1
1027 1558 1
1027 3587 1
1027 1547 1
1027 1028 1
1027 2641 1
1027 529 1
1027 3129 1
1027 3589 1
1027 2063 1
1027 3196 1
1027 2620 1
1027 1292 1
1027 118 1
1027 3600 1
1027 3248 1
1027 2101 1
1027 3638 1
1027 1064 1
1027 106 1
1027 204 1
1027 1058 1
1027 3656 1
1027 1074 1
1027 140 1
1027 1609 1
1027 2608 1
1027 1151 1
2078 1 1
2078 2049 1
2078 2571 1
2078 14 1
2078 2572 1
2078 3078 1
2078 2563 1
2078 5 1
2078 1033 1
2078 3632 1
2078 1553 1
2078 2055 1
2078 2057 1
2078 3170 1
2078 1612 1
2078 3136 1
2078 3235 1
2078 102 1
2078 2765 1
2078 3587 1
2078 1028 1
2078 2567 1
2078 2652 1
2078 1639 1
2078 2063 1
2078 47 1
2078 3212 1
2078 559 1
2078 1540 1
2078 3089 1
2078 540 1
2078 2201 1
3102 1 1
3102 3591 1
3102 3074 1
3102 2566 1
3102 1538 1
3102 14 1
3102 516 1
3102 3078 1
3102 2671 1
3102 2569 1
3102 1548 1
3102 16 1
3102 1025 1
3102 2054 1
3102 22 1
3102 531 1
3102 2122 1
3102 2754 1
3102 3598 1
3102 101 1
3102 3585 1
3102 1029 1
3102 3101 1
3102 2099 1
3102 3629 1
3102 2630 1
3102 19 1
3102 2674 1
3102 548 1
3102 2623 1
3102 1552 1
3102 1047 1
3102 2647 1
1069 1 1
1069 2 1
1069 3143 1
1069 1811 1
1069 537 1
1069 2051 1
1069 1193 1
1069 2638 1
1069 2624 1
1069 3585 1
1069 1549 1
1069 2063 1
1069 2636 1
1069 3649 1
1069 3628 1
2077 1 1
2077 3073 1
2077 27 1
2077 3586 1
2077 1541 1
2077 7 1
2077 525 1
2077 1538 1
2077 523 1
2077 534 1
2077 2572 1
2077 1537 1
2077 516 1
2077 514 1
2077 1823 1
2077 518 1
2077 1539 1
2077 3646 1
2077 3076 1
2077 3598 1
2077 3662 1
2077 3585 1
2077 36 1
2077 2071 1
2077 1081 1
2077 1070 1
2077 718 1
2077 2561 1
2077 1031 1
2077 13 1
2077 2575 1
2077 3589 1
2077 540 1
80 2595 1
80 1026 1
80 46 1
80 520 1
80 3585 1
80 524 1
80 1554 1
80 1074 1
80 634 1
41 1 1
41 1541 1
41 3107 1
41 3078 1
41 1052 1
41 2564 1
41 2634 1
41 2562 1
41 1027 1
41 1555 1
41 3602 1
41 2679 1
41 3596 1
41 66 1
41 2641 1
41 1066 1
41 563 1
3169 2050 1
3169 1537 1
3169 2755 1
3169 3602 1
3169 1560 1
3169 530 1
3169 1550 1
2563 1 1
2563 2050 1
2563 2049 1
2563 3074 1
2563 3073 1
2563 2 1
2563 1542 1
2563 3586 1
2563 3153 1
2563 1538 1
2563 3592 1
2563 3079 1
2563 3669 1
2563 2619 1
2563 1537 1
2563 516 1
2563 526 1
2563 3086 1
2563 518 1
2563 26 1
2563 1026 1
2563 2569 1
2563 1544 1
2563 521 1
2563 1573 1
2563 2073 1
2563 5 1
2563 539 1
2563 212 1
2563 1041 1
2563 1565 1
2563 41 1
2563 3311 1
2563 537 1
2563 3265 1
2563 2054 1
2563 3637 1
2563 1546 1
2563 2118 1
2563 1033 1
2563 2069 1
2563 8 1
2563 150 1
2563 513 1
2563 2568 1
2563 2083 1
2563 3076 1
2563 3598 1
2563 1592 1
2563 2066 1
2563 2562 1
2563 11 1
2563 532 1
2563 557 1
2563 2057 1
2563 1034 1
2563 515 1
2563 2110 1
2563 3585 1
2563 517 1
2563 2570 1
2563 1557 1
2563 2056 1
2563 3661 1
2563 2594 1
2563 3101 1
2563 6 1
2563 179 1
2563 1584 1
2563 3594 1
2563 1044 1
2563 1045 1
2563 1614 1
2563 1580 1
2563 2797 1
2563 3111 1
2563 1306 1
2563 2863 1
2563 954 1
2563 3590 1
2563 527 1
2563 1208 1
2563 687 1
2563 2561 1
2563 3587 1
2563 13 1
2563 530 1
2563 2626 1
2563 2567 1
2563 60 1
2563 104 1
2563 2565 1
2563 1039 1
2563 2052 1
2563 1549 1
2563 3613 1
2563 731 1
2563 99 1
2563 2614 1
2563 2308 1
2563 2061 1
2563 3674 1
2563 3112 1
2563 3638 1
2563 1067 1
2563 1540 1
2563 1604 1
2563 1065 1
2563 3656 1
2563 9 1
2563 1074 1
2563 1898 1
2563 80 1
2563 951 1
1054 2049 1
1054 3074 1
1054 1542 1
1054 3084 1
1054 1537 1
1054 3078 1
1054 3624 1
1054 1079 1
1054 1548 1
1054 531 1
1054 3611 1
1054 513 1
1054 3645 1
1054 2710 1
1054 536 1
1054 3083 1
1054 2067 1
1054 3585 1
1054 3602 1
1054 2056 1
1054 3661 1
1054 1045 1
1054 1829 1
1054 1035 1
1054 1075 1
1054 2093 1
1054 2561 1
1054 2592 1
1054 4 1
1054 173 1
1054 1970 1
30 1 1
30 2050 1
30 3074 1
30 2595 1
30 1538 1
30 3078 1
30 2563 1
30 3097 1
30 3161 1
30 41 1
30 3595 1
30 513 1
30 3094 1
30 2596 1
30 3585 1
30 2079 1
30 3596 1
30 2085 1
30 45 1
30 1075 1
30 128 1
30 3587 1
30 3589 1
30 99 1
30 2574 1
30 1133 1
30 2597 1
30 58 1
30 875 1
30 3647 1
30 1589 1
635 1025 1
635 39 1
635 48 1
635 193 1
635 2145 1
3110 1 1
3110 1030 1
3110 1542 1
3110 2070 1
3110 1565 1
3110 3138 1
3110 3659 1
3110 1025 1
3110 2054 1
3110 535 1
3110 2610 1
3110 1107 1
3110 30 1
3110 50 1
3110 798 1
3110 3166 1
3110 1044 1
3110 1037 1
3110 3167 1
3110 3605 1
3110 3589 1
3110 3092 1
3110 3593 1
3110 989 1
3678 1 1
3678 751 1
3678 1242 1
3678 1070 1
3678 2127 1
3678 3668 1
3678 1241 1
3678 2250 1
1107 1538 1
1107 3077 1
1107 3588 1
1107 2113 1
1107 1588 1
1107 3607 1
1107 25 1
1107 4 1
1107 194 1
1107 894 1
1186 2054 1
1186 59 1
1186 3593 1
2069 1 1
2069 2049 1
2069 3591 1
2069 3073 1
2069 1541 1
2069 3121 1
2069 518 1
2069 1026 1
2069 1062 1
2069 521 1
2069 1025 1
2069 3080 1
2069 1567 1
2069 2074 1
2069 2580 1
2069 3082 1
2069 2144 1
2069 1027 1
2069 3118 1
2069 1631 1
2069 1629 1
2069 49 1
2069 3099 1
2069 3607 1
2069 1622 1
2069 2584 1
2069 3589 1
2069 3098 1
2069 2061 1
2069 1099 1
2069 2579 1
2069 1601 1
2069 2577 1
2069 2625 1
2069 931 1
2069 2651 1
2069 2608 1
2630 3074 1
2630 3659 1
2630 1040 1
2630 3076 1
2630 3585 1
2630 561 1
2630 3607 1
2630 29 1
2630 3589 1
2630 548 1
2630 3600 1
2104 3073 1
2104 2572 1
2104 518 1
2104 2662 1
2104 1025 1
2104 2562 1
2104 515 1
2104 1631 1
2104 524 1
2104 2053 1
2104 1098 1
2104 1031 1
2104 548 1
2104 3186 1
1731 1537 1
1731 6 1
1090 2049 1
1090 516 1
1090 3086 1
1090 2581 1
1090 513 1
1090 1562 1
1090 1675 1
1090 524 1
1090 2679 1
1090 2686 1
1090 172 1
1090 3255 1
3700 1030 1
3700 516 1
3700 1543 1
3700 113 1
3700 29 1
3700 3114 1
3237 1544 1
3237 3094 1
3237 3594 1
1735 45 1
1735 1284 1
3082 1 1
3082 2050 1
3082 2049 1
3082 3074 1
3082 3073 1
3082 2 1
3082 3586 1
3082 1541 1
3082 7 1
3082 1538 1
3082 3077 1
3082 1073 1
3082 3084 1
3082 1537 1
3082 3078 1
3082 3075 1
3082 518 1
3082 1077 1
3082 1079 1
3082 1026 1
3082 2569 1
3082 1548 1
3082 3081 1
3082 2589 1
3082 2634 1
3082 1025 1
3082 3588 1
3082 2051 1
3082 3601 1
3082 3618 1
3082 2578 1
3082 1033 1
3082 1105 1
3082 1138 1
3082 3104 1
3082 1198 1
3082 513 1
3082 2568 1
3082 2083 1
3082 2222 1
3082 2562 1
3082 3106 1
3082 3259 1
3082 1027 1
3082 2730 1
3082 70 1
3082 3120 1
3082 3096 1
3082 3243 1
3082 2639 1
3082 3083 1
3082 3126 1
3082 3614 1
3082 2582 1
3082 1555 1
3082 1042 1
3082 2119 1
3082 2570 1
3082 3609 1
3082 49 1
3082 6 1
3082 2079 1
3082 1593 1
3082 23 1
3082 770 1
3082 2053 1
3082 1061 1
3082 3099 1
3082 3590 1
3082 909 1
3082 1627 1
3082 2060 1
3082 728 1
3082 2561 1
3082 1028 1
3082 3093 1
3082 3181 1
3082 529 1
3082 1117 1
3082 1639 1
3082 1640 1
3082 3092 1
3082 2809 1
3082 2181 1
3082 173 1
3082 248 1
3082 3114 1
3082 159 1
3082 3635 1
3082 3177 1
3082 80 1
3082 1572 1
3082 1712 1
1039 1 1
1039 3074 1
1039 3073 1
1039 3586 1
1039 7 1
1039 1538 1
1039 1537 1
1039 526 1
1039 518 1
1039 1026 1
1039 3103 1
1039 2129 1
1039 2631 1
1039 1049 1
1039 2590 1
1039 3601 1
1039 520 1
1039 3104 1
1039 3082 1
1039 1046 1
1039 1592 1
1039 3585 1
1039 2090 1
1039 1614 1
1039 2053 1
1039 1078 1
1039 199 1
1039 155 1
1039 3159 1
1039 3587 1
1039 2068 1
1039 1547 1
1039 1051 1
1039 25 1
1039 4 1
1039 184 1
1039 40 1
1039 1540 1
1039 1581 1
1039 1065 1
2575 1 1
2575 2049 1
2575 3074 1
2575 2566 1
2575 1538 1
2575 3121 1
2575 1537 1
2575 514 1
2575 2563 1
2575 1544 1
2575 2073 1
2575 2631 1
2575 1546 1
2575 531 1
2575 2568 1
2575 31 1
2575 69 1
2575 3598 1
2575 519 1
2575 2562 1
2575 1027 1
2575 2057 1
2575 2624 1
2575 50 1
2575 2143 1
2575 2079 1
2575 1560 1
2575 2205 1
2575 2060 1
2575 2759 1
2575 2561 1
2575 1028 1
2575 3605 1
2575 25 1
2575 2112 1
2575 2574 1
2575 1576 1
2575 3630 1
2575 1540 1
2575 1609 1
2575 562 1
1608 1 1
1608 3586 1
1608 516 1
1608 2563 1
1608 2069 1
1608 520 1
1608 1034 1
1608 3585 1
1608 2071 1
1608 550 1
1608 1585 1
32 1 1
32 3074 1
32 3073 1
32 3586 1
32 1541 1
32 3 1
32 7 1
32 1537 1
32 514 1
32 1052 1
32 2563 1
32 2054 1
32 1546 1
32 2069 1
32 513 1
32 11 1
32 813 1
32 3585 1
32 522 1
32 1029 1
32 2633 1
32 1627 1
32 1031 1
32 2068 1
32 1093 1
32 3600 1
32 1595 1
32 540 1
32 1300 1
32 3597 1
556 2049 1
556 1030 1
556 7 1
556 3077 1
556 516 1
556 78 1
556 521 1
556 3081 1
556 3104 1
556 3594 1
556 2053 1
556 3629 1
556 1032 1
556 2616 1
556 3630 1
556 886 1
620 1026 1
620 1672 1
620 2068 1
620 2061 1
620 1058 1
620 3137 1
3090 1 1
3090 3586 1
3090 2078 1
3090 1538 1
3090 3592 1
3090 2082 1
3090 3078 1
3090 3075 1
3090 2643 1
3090 5 1
3090 1025 1
3090 1543 1
3090 1546 1
3090 3620 1
3090 513 1
3090 1027 1
3090 2727 1
3090 2067 1
3090 62 1
3090 3585 1
3090 1029 1
3090 1557 1
3090 6 1
3090 3590 1
3090 15 1
3090 1032 1
3090 2567 1
3090 2565 1
3090 1057 1
3090 3193 1
3090 2592 1
3090 1677 1
3090 2579 1
3090 3638 1
3090 2605 1
3090 3189 1
3090 939 1
3090 3597 1
3090 843 1
44 1 1
44 1537 1
44 537 1
44 1025 1
44 1563 1
44 3085 1
44 1119 1
44 1035 1
44 66 1
44 1032 1
44 2052 1
44 1047 1
44 1133 1
44 2657 1
44 3110 1
3130 1537 1
3130 2062 1
3130 1025 1
3130 3104 1
3130 2562 1
3130 1027 1
3130 1561 1
3130 2164 1
3130 2567 1
3130 548 1
3130 176 1
3130 4 1
3130 1054 1
2159 3599 1
2159 2278 1
2159 517 1
2159 3589 1
2159 1054 1
2159 3144 1
567 3 1
567 3107 1
567 1026 1
567 2581 1
567 1025 1
567 2054 1
567 1029 1
567 3101 1
567 2071 1
567 2871 1
567 2576 1
567 64 1
567 9 1
567 3293 1
2671 2077 1
2671 546 1
2671 2054 1
2671 519 1
2671 580 1
2671 2577 1
1650 514 1
1650 3087 1
1650 3102 1
1650 3096 1
1650 3625 1
1650 33 1
1299 1 1
26 1 1
26 3591 1
26 3073 1
26 523 1
26 521 1
26 539 1
26 2054 1
26 81 1
26 8 1
26 513 1
26 2568 1
26 1046 1
26 3133 1
26 2174 1
26 1107 1
26 522 1
26 1045 1
26 2666 1
26 1032 1
26 1028 1
26 13 1
26 1608 1
26 2584 1
26 2575 1
26 1086 1
26 3169 1
26 3092 1
26 3095 1
26 141 1
26 742 1
26 3165 1
26 3635 1
26 3249 1
593 1053 1
593 3586 1
593 2568 1
593 92 1
593 2618 1
593 1095 1
593 2644 1
593 1540 1
593 2178 1
1066 3073 1
1066 3079 1
1066 2563 1
1066 2070 1
1066 544 1
1066 1648 1
1066 3646 1
1066 2114 1
1066 3096 1
1066 2570 1
1066 1661 1
1066 3113 1
1066 2561 1
1066 1051 1
1066 3626 1
1066 2625 1
1066 2275 1
2179 1538 1
2179 3588 1
2179 76 1
2179 3092 1
2179 1271 1
1115 3073 1
1115 3242 1
1115 3082 1
1115 2732 1
1115 1563 1
1115 23 1
1115 1178 1
1115 2089 1
1115 1173 1
3163 3586 1
3163 16 1
3163 2124 1
3163 1029 1
3163 2599 1
3163 6 1
3163 1637 1
3163 1091 1
2710 1538 1
2710 541 1
2710 3622 1
2710 1093 1
3227 2049 1
3227 1026 1
3227 5 1
56 2050 1
56 1564 1
56 1026 1
56 2051 1
56 3270 1
56 11 1
56 2065 1
56 1753 1
56 3585 1
56 3589 1
56 2063 1
56 1676 1
56 3154 1
2287 2241 1
3782 2569 1
3782 1254 1
1195 1 1
1195 528 1
1195 1036 1
2792 1 1
3258 1537 1
3258 2056 1
9 1 1
9 2050 1
9 3591 1
9 3074 1
9 2 1
9 3617 1
9 3586 1
9 3 1
9 7 1
9 525 1
9 533 1
9 1538 1
9 523 1
9 3086 1
9 3624 1
9 1026 1
9 2569 1
9 2588 1
9 1062 1
9 521 1
9 1539 1
9 5 1
9 1548 1
9 16 1
9 2609 1
9 775 1
9 2054 1
9 34 1
9 1543 1
9 1055 1
9 2051 1
9 1546 1
9 8 1
9 1553 1
9 3104 1
9 513 1
9 2055 1
9 2568 1
9 3598 1
9 1818 1
9 1127 1
9 3168 1
9 536 1
9 1561 1
9 2615 1
9 3585 1
9 522 1
9 2573 1
9 3627 1
9 23 1
9 2659 1
9 2053 1
9 1078 1
9 2587 1
9 1035 1
9 2576 1
9 1191 1
9 614 1
9 652 1
9 1673 1
9 2561 1
9 1032 1
9 3147 1
9 2583 1
9 2052 1
9 25 1
9 2652 1
9 1636 1
9 1050 1
9 2574 1
9 3092 1
9 3630 1
9 1047 1
9 538 1
9 2101 1
9 44 1
9 79 1
9 805 1
9 1607 1
9 988 1
9 1540 1
9 3089 1
9 3635 1
9 3116 1
9 201 1
9 690 1
9 676 1
9 1204 1
531 1 1
531 3074 1
531 1538 1
531 534 1
531 3078 1
531 518 1
531 111 1
531 1026 1
531 2569 1
531 1544 1
531 3599 1
531 1548 1
531 2051 1
531 3671 1
531 3618 1
531 3620 1
531 68 1
531 513 1
531 2562 1
531 2612 1
531 1641 1
531 2582 1
531 2598 1
531 3170 1
531 3585 1
531 522 1
531 2072 1
531 1029 1
531 3101 1
531 1556 1
531 1032 1
531 529 1
531 2772 1
531 2061 1
531 953 1
531 3248 1
531 3110 1
531 3238 1
1057 1 1
1057 2050 1
1057 3073 1
1057 3592 1
1057 1551 1
1057 750 1
1057 1544 1
1057 1025 1
1057 513 1
1057 3076 1
1057 1046 1
1057 2562 1
1057 55 1
1057 3133 1
1057 2263 1
1057 90 1
1057 1042 1
1057 3585 1
1057 85 1
1057 1593 1
1057 2071 1
1057 1560 1
1057 3590 1
1057 186 1
1057 1039 1
1057 3639 1
1057 3605 1
1057 2652 1
1057 2642 1
1057 3597 1
3134 1 1
3134 1538 1
3134 3079 1
3134 1026 1
3134 1025 1
3134 1543 1
3134 519 1
3134 515 1
3134 2056 1
3134 33 1
3134 2567 1
3134 4 1
3594 1 1
3594 2049 1
3594 3074 1
3594 2566 1
3594 3073 1
3594 533 1
3594 1538 1
3594 523 1
3594 1537 1
3594 1052 1
3594 3143 1
3594 1669 1
3594 2051 1
3594 1040 1
3594 1033 1
3594 2622 1
3594 2055 1
3594 2568 1
3594 3598 1
3594 32 1
3594 2066 1
3594 1121 1
3594 2562 1
3594 12 1
3594 3106 1
3594 1027 1
3594 528 1
3594 3120 1
3594 3585 1
3594 524 1
3594 1618 1
3594 3612 1
3594 6 1
3594 3596 1
3594 3642 1
3594 3607 1
3594 1090 1
3594 2561 1
3594 1031 1
3594 530 1
3594 2567 1
3594 1051 1
3594 2644 1
3594 1632 1
3594 1060 1
3594 2592 1
3594 1234 1
3594 58 1
3594 1216 1
3594 1144 1
3594 2645 1
573 1 1
573 1537 1
573 3087 1
573 3090 1
573 3622 1
573 1044 1
573 2587 1
573 2060 1
573 2567 1
573 542 1
573 3214 1
573 3605 1
573 3196 1
1083 1 1
1083 2050 1
1083 1541 1
1083 1537 1
1083 2564 1
1083 1049 1
1083 65 1
1083 3088 1
1083 1612 1
1083 3594 1
1083 4 1
1083 3236 1
1083 2178 1
2724 1 1
2724 2 1
2724 12 1
2584 1 1
2584 2049 1
2584 3074 1
2584 3077 1
2584 2591 1
2584 2058 1
2584 514 1
2584 2569 1
2584 3080 1
2584 3588 1
2584 2590 1
2584 1193 1
2584 2076 1
2584 74 1
2584 513 1
2584 3241 1
2584 10 1
2584 2582 1
2584 3585 1
2584 2056 1
2584 6 1
2584 3594 1
2584 810 1
2584 844 1
2584 3590 1
2584 1092 1
2584 527 1
2584 3665 1
2584 1662 1
2584 1698 1
2584 2145 1
2584 3175 1
2584 3098 1
2584 1161 1
2584 717 1
574 1538 1
574 3592 1
574 1026 1
574 1041 1
574 513 1
574 2598 1
574 2567 1
574 2565 1
574 2052 1
574 91 1
574 1047 1
574 79 1
574 2711 1
2639 3073 1
2639 1542 1
2639 3586 1
2639 3588 1
2639 513 1
2639 2057 1
2639 1090 1
2639 47 1
2639 2102 1
2639 549 1
1174 3077 1
1174 3076 1
1174 868 1
1174 1195 1
1622 533 1
1622 5 1
1622 3667 1
1622 2598 1
1622 3585 1
1622 541 1
1622 182 1
1622 2084 1
1622 2063 1
2184 1 1
2184 2569 1
2184 1654 1
2184 1203 1
2184 3116 1
3788 1575 1
3788 1091 1
2800 3076 1
1573 2049 1
1573 2566 1
1573 1538 1
1573 3079 1
1573 518 1
1573 775 1
1573 3588 1
1573 2578 1
1573 2069 1
1573 3646 1
1573 513 1
1573 3094 1
1573 515 1
1573 123 1
1573 56 1
1573 3585 1
1573 541 1
1573 1036 1
1573 3590 1
1573 169 1
1573 2093 1
1573 2096 1
1573 2166 1
1573 1576 1
1573 878 1
1573 2577 1
1573 3255 1
97 2058 1
97 1537 1
97 1105 1
97 1036 1
97 15 1
97 25 1
97 3600 1
2655 1 1
2655 2050 1
2655 3075 1
2655 1062 1
2655 73 1
2655 1554 1
2655 2088 1
1662 1537 1
1662 519 1
1662 3585 1
1662 1116 1
1662 918 1
42 2566 1
42 3073 1
42 3586 1
42 533 1
42 3592 1
42 523 1
42 2572 1
42 1055 1
42 1553 1
42 12 1
42 3585 1
42 36 1
42 1879 1
42 1032 1
42 2052 1
42 1047 1
1711 28 1
1711 3174 1
1711 2579 1
1159 3595 1
1159 517 1
1159 6 1
1159 2052 1
1159 3144 1
2294 2092 1
553 1 1
553 2566 1
553 3073 1
553 3586 1
553 3084 1
553 518 1
553 1026 1
553 2569 1
553 3640 1
553 3625 1
553 1726 1
553 2068 1
553 2567 1
553 1101 1
553 2135 1
553 3600 1
553 538 1
553 1074 1
664 2570 1
664 1237 1
664 29 1
664 1068 1
3756 1541 1
3756 3590 1
3756 1604 1
3291 2568 1
609 1 1
609 2050 1
609 2566 1
609 3081 1
609 2067 1
609 3085 1
609 3093 1
609 3593 1
2290 3585 1
3096 1 1
3096 2050 1
3096 3073 1
3096 1548 1
3096 16 1
3096 1543 1
3096 3588 1
3096 520 1
3096 2580 1
3096 2115 1
3096 862 1
3096 2055 1
3096 1046 1
3096 2562 1
3096 2689 1
3096 2057 1
3096 30 1
3096 919 1
3096 1746 1
3096 522 1
3096 1059 1
3096 3642 1
3096 2587 1
3096 189 1
3096 1092 1
3096 2060 1
3096 1016 1
3096 2561 1
3096 4 1
3096 3146 1
3096 3165 1
3096 3649 1
3096 84 1
3096 3160 1
3096 2823 1
3096 3597 1
59 1 1
59 5 1
59 2069 1
59 2055 1
59 3076 1
59 3585 1
59 517 1
59 530 1
59 1069 1
59 1054 1
59 3098 1
59 2625 1
1120 2175 1
1120 520 1
1120 2562 1
1120 3606 1
1120 2053 1
1120 129 1
1120 1656 1
1120 1050 1
1120 2297 1
2796 13 1
2646 2572 1
2646 3604 1
2646 3624 1
2646 1681 1
2646 2188 1
2646 1092 1
2646 3587 1
2646 3169 1
2646 1202 1
1170 1046 1
1170 517 1
1170 3235 1
1170 2052 1
651 3585 1
651 1586 1
651 3338 1
651 197 1
281 513 1
576 1 1
576 1030 1
576 518 1
576 1025 1
576 1543 1
576 2654 1
576 513 1
576 1557 1
576 3590 1
576 2587 1
576 1128 1
576 1125 1
1862 3119 1
98 1 1
98 3586 1
98 2581 1
98 1699 1
98 1032 1
98 3593 1
98 9 1
186 2646 1
186 1028 1
2729 2055 1
2729 23 1
2729 2775 1
3249 1539 1
3249 2764 1
2869 3250 1
2099 1541 1
2099 1538 1
2099 3115 1
2099 2055 1
2099 3184 1
2099 3280 1
2099 641 1
2099 2700 1
2099 4 1
2099 47 1
2099 191 1
2099 1603 1
2099 2737 1
2099 3275 1
2099 1293 1
2684 1 1
2684 889 1
2684 3612 1
2684 2646 1
2684 3607 1
139 2050 1
139 183 1
139 1561 1
139 1123 1
2245 1537 1
2245 2614 1
169 2049 1
169 2568 1
169 1056 1
189 1539 1
189 5 1
697 2 1
697 1112 1
1162 1537 1
1162 3637 1
1162 3611 1
1162 1032 1
1162 3605 1
2870 2561 1
3888 521 1
3080 1 1
3080 2050 1
3080 3074 1
3080 2566 1
3080 3073 1
3080 2 1
3080 1542 1
3080 2571 1
3080 3586 1
3080 1541 1
3080 2585 1
3080 525 1
3080 1538 1
3080 3079 1
3080 1537 1
3080 3078 1
3080 1052 1
3080 1564 1
3080 2563 1
3080 518 1
3080 95 1
3080 3103 1
3080 1539 1
3080 2073 1
3080 17 1
3080 2173 1
3080 1025 1
3080 2054 1
3080 28 1
3080 1648 1
3080 531 1
3080 3671 1
3080 24 1
3080 1106 1
3080 2622 1
3080 1553 1
3080 3204 1
3080 743 1
3080 1305 1
3080 3598 1
3080 2562 1
3080 3645 1
3080 1641 1
3080 11 1
3080 1782 1
3080 2057 1
3080 90 1
3080 964 1
3080 1795 1
3080 98 1
3080 1629 1
3080 3585 1
3080 517 1
3080 553 1
3080 1813 1
3080 1100 1
3080 3594 1
3080 573 1
3080 72 1
3080 2719 1
3080 1110 1
3080 1061 1
3080 734 1
3080 1119 1
3080 2148 1
3080 180 1
3080 3590 1
3080 1035 1
3080 146 1
3080 2242 1
3080 2561 1
3080 1031 1
3080 13 1
3080 2565 1
3080 1634 1
3080 2575 1
3080 3297 1
3080 3589 1
3080 1638 1
3080 1050 1
3080 2592 1
3080 1093 1
3080 2170 1
3080 2623 1
3080 2579 1
3080 2668 1
3080 239 1
3080 2600 1
3080 1170 1
3080 1064 1
3080 2649 1
3080 1540 1
3080 1581 1
3080 1065 1
3080 1018 1
3080 3628 1
3080 1129 1
3080 1147 1
3080 1605 1
2074 1 1
2074 2050 1
2074 2049 1
2074 2566 1
2074 3586 1
2074 7 1
2074 3077 1
2074 516 1
2074 3109 1
2074 1564 1
2074 1559 1
2074 2156 1
2074 2581 1
2074 2634 1
2074 535 1
2074 3076 1
2074 519 1
2074 32 1
2074 2562 1
2074 1027 1
2074 524 1
2074 1029 1
2074 1583 1
2074 2099 1
2074 15 1
2074 1547 1
2074 3193 1
2074 2052 1
2074 3626 1
2074 1056 1
2074 2741 1
2074 3124 1
2074 1605 1
2074 729 1
2074 602 1
3606 1 1
3606 3074 1
3606 3073 1
3606 3 1
3606 1538 1
3606 2563 1
3606 3097 1
3606 1539 1
3606 2609 1
3606 535 1
3606 24 1
3606 3090 1
3606 519 1
3606 3663 1
3606 3120 1
3606 938 1
3606 1212 1
3606 2570 1
3606 1100 1
3606 2123 1
3606 2618 1
3606 3158 1
3606 851 1
3606 788 1
3606 909 1
3606 542 1
3606 1101 1
3606 1039 1
3606 1050 1
3606 4 1
3606 3095 1
3606 3668 1
3606 1118 1
3606 1540 1
3606 2695 1
3606 2089 1
3606 1936 1
2613 1542 1
2613 516 1
2613 514 1
2613 2601 1
2613 8 1
2613 520 1
2613 2562 1
2613 2057 1
2613 10 1
2613 3602 1
2613 2565 1
2613 2135 1
2613 3593 1
2613 1151 1
3098 1 1
3098 3591 1
3098 3073 1
3098 2 1
3098 3617 1
3098 3079 1
3098 2572 1
3098 2563 1
3098 3615 1
3098 518 1
3098 1551 1
3098 1539 1
3098 16 1
3098 1025 1
3098 513 1
3098 1107 1
3098 2167 1
3098 3614 1
3098 1042 1
3098 3185 1
3098 3253 1
3098 2570 1
3098 2056 1
3098 105 1
3098 3085 1
3098 3111 1
3098 2100 1
3098 3587 1
3098 545 1
3098 3092 1
3098 1124 1
3098 1591 1
3098 2838 1
3098 3597 1
3098 3162 1
2119 2049 1
2119 3074 1
2119 1538 1
2119 2581 1
2119 2070 1
2119 544 1
2119 3080 1
2119 39 1
2119 12 1
2119 65 1
2119 37 1
3681 1 1
3681 3586 1
3681 2564 1
3681 143 1
3681 3083 1
3681 524 1
3681 527 1
3681 2298 1
2864 2084 1
2066 1 1
2066 3074 1
2066 27 1
2066 3586 1
2066 7 1
2066 2585 1
2066 2078 1
2066 1545 1
2066 1537 1
2066 26 1
2066 1025 1
2066 1055 1
2066 1033 1
2066 3632 1
2066 520 1
2066 2076 1
2066 2055 1
2066 2568 1
2066 1568 1
2066 3168 1
2066 3096 1
2066 59 1
2066 828 1
2066 20 1
2066 2071 1
2066 3594 1
2066 1045 1
2066 597 1
2066 1620 1
2066 2561 1
2066 1031 1
2066 545 1
2066 2567 1
2066 3176 1
2066 1549 1
2066 3128 1
2066 3676 1
2066 2649 1
2066 3656 1
1595 1 1
1595 2050 1
1595 2 1
1595 3079 1
1595 2572 1
1595 1537 1
1595 24 1
1595 513 1
1595 2562 1
1595 1563 1
1595 15 1
1595 1067 1
1595 2251 1
1618 3073 1
1618 1541 1
1618 514 1
1618 1077 1
1618 1539 1
1618 2057 1
1618 3083 1
1618 2561 1
1618 3610 1
3779 3075 1
3779 9 1
571 1025 1
571 3080 1
571 1043 1
571 46 1
571 3620 1
571 3088 1
571 3585 1
571 2570 1
571 2587 1
571 1558 1
571 3587 1
571 2052 1
571 1086 1
2234 3074 1
2234 3612 1
2234 1540 1
174 1218 1
174 1563 1
174 552 1
2861 3318 1
3619 2050 1
3619 3591 1
3619 3 1
3619 3621 1
3619 516 1
3619 3078 1
3619 1551 1
3619 1026 1
3619 2564 1
3619 1027 1
3619 528 1
3619 1034 1
3619 65 1
3619 3232 1
3619 2106 1
3619 1059 1
3619 854 1
3619 2324 1
3619 527 1
3619 3152 1
3619 1114 1
3619 1547 1
3619 2567 1
3619 2565 1
3619 2135 1
3619 2052 1
3619 1552 1
3619 1056 1
3619 2635 1
3619 554 1
2115 1 1
2115 2050 1
2115 27 1
2115 2103 1
2115 1537 1
2115 1539 1
2115 1546 1
2115 1657 1
2115 3076 1
2115 3102 1
2115 3663 1
2115 2561 1
2161 3074 1
2161 28 1
2161 893 1
2161 1112 1
2161 3214 1
2161 3224 1
2732 3608 1
2732 2124 1
2732 1057 1
2120 2049 1
2120 1025 1
2120 3190 1
2120 98 1
2120 2119 1
2120 2570 1
2120 2673 1
2120 1036 1
2120 1082 1
2120 4 1
2120 1609 1
2244 2607 1
2244 1025 1
642 2050 1
642 1102 1
642 2633 1
642 2561 1
642 2135 1
187 1537 1
187 1186 1
64 516 1
64 2656 1
64 2054 1
64 32 1
64 2132 1
64 3096 1
64 3163 1
64 524 1
64 3152 1
64 1602 1
64 2801 1
64 1065 1
2691 3077 1
2691 16 1
2691 2054 1
2691 20 1
613 28 1
613 1546 1
613 12 1
613 1029 1
613 1583 1
613 3587 1
613 3207 1
3375 1 1
1224 1027 1
1224 2064 1
1854 1540 1
294 3092 1
537 1 1
537 2050 1
537 2049 1
537 7 1
537 3077 1
537 3079 1
537 3075 1
537 1564 1
537 3103 1
537 3127 1
537 1025 1
537 3611 1
537 1553 1
537 513 1
537 1127 1
537 2152 1
537 517 1
537 2570 1
537 3594 1
537 2587 1
537 1098 1
537 527 1
537 1662 1
537 2060 1
537 704 1
537 2561 1
537 3587 1
537 3142 1
537 1549 1
537 1656 1
537 2574 1
537 2061 1
537 1133 1
537 79 1
537 3610 1
3657 2049 1
3657 1537 1
3657 543 1
3657 22 1
3657 3164 1
3657 31 1
3657 3603 1
3657 2562 1
3657 3585 1
3657 2565 1
3657 3613 1
3155 1 1
3155 2 1
3155 1027 1
3155 1029 1
3155 3665 1
3155 3587 1
3155 1051 1
3155 2063 1
3155 2092 1
99 3074 1
99 1548 1
99 3081 1
99 2134 1
99 1872 1
99 2599 1
99 708 1
605 1 1
605 2049 1
605 2777 1
605 1650 1
605 2750 1
605 2561 1
605 3589 1
605 108 1
3764 2169 1
3764 1195 1
3764 3195 1
3203 1 1
3203 2572 1
3203 2073 1
3203 2057 1
2717 1026 1
2717 1647 1
2717 1142 1
2626 2566 1
2626 1030 1
2626 525 1
2626 2091 1
2626 1538 1
2626 2073 1
2626 1025 1
2626 2054 1
2626 34 1
2626 3611 1
2626 1027 1
2626 1650 1
3217 1543 1
3217 513 1
3217 23 1
703 516 1
703 1065 1
3856 526 1
1140 1 1
1140 3103 1
1140 2059 1
1140 520 1
1140 1590 1
1140 3177 1
2840 2663 1
3345 527 1
555 1 1
555 2049 1
555 1541 1
555 7 1
555 3079 1
555 1537 1
555 1551 1
555 1539 1
555 2662 1
555 513 1
555 3612 1
555 1061 1
555 1032 1
555 1028 1
555 2224 1
555 1540 1
555 2717 1
2753 3585 1
2753 2052 1
2209 2571 1
2209 16 1
2209 3284 1
2209 1156 1
1821 5 1
2213 2049 1
2213 1049 1
2213 3590 1
2332 3616 1
3281 116 1
3281 1172 1
2649 2078 1
2649 1537 1
2649 28 1
2649 2109 1
2649 2125 1
2649 3113 1
2649 558 1
2649 1554 1
730 3079 1
730 1026 1
2339 527 1
2340 533 1
2779 1537 1
2779 3135 1
546 2049 1
546 2566 1
546 2 1
546 3586 1
546 3079 1
546 3086 1
546 1544 1
546 1539 1
546 22 1
546 28 1
546 1546 1
546 531 1
546 3631 1
546 2116 1
546 1033 1
546 513 1
546 2055 1
546 528 1
546 1652 1
546 1111 1
546 1042 1
546 1029 1
546 3594 1
546 2127 1
546 3681 1
546 2592 1
546 44 1
546 1064 1
546 3300 1
546 758 1
582 1 1
582 2 1
582 2078 1
582 2568 1
582 3076 1
582 1042 1
582 3585 1
582 517 1
582 2586 1
582 3600 1
582 40 1
1085 2 1
1085 2571 1
1085 3586 1
1085 1545 1
1085 1653 1
1085 2792 1
1085 536 1
1085 524 1
1085 6 1
1085 3593 1
1085 1540 1
1085 894 1
646 1546 1
646 2053 1
646 2579 1
646 1056 1
594 1538 1
594 2059 1
594 3081 1
594 34 1
594 757 1
594 3082 1
594 1027 1
594 522 1
594 1036 1
1633 1 1
1633 3075 1
1633 513 1
1633 2056 1
1633 545 1
1633 2179 1
1633 756 1
3805 1541 1
3805 767 1
3861 2067 1
1084 1 1
1084 2595 1
1084 523 1
1084 1026 1
1084 1544 1
1084 1565 1
1084 2568 1
1084 3076 1
1084 2064 1
1084 2071 1
1084 1614 1
1084 2053 1
1084 542 1
1671 543 1
1671 1025 1
1671 171 1
1671 3607 1
1251 24 1
1251 3197 1
158 1539 1
158 2118 1
158 39 1
3862 513 1
1106 1 1
1106 1062 1
1106 3102 1
1106 2064 1
1106 3088 1
1106 1563 1
1106 1560 1
1106 1039 1
1106 529 1
1106 1605 1
3712 3073 1
3712 516 1
3712 1557 1
3712 1037 1
3712 3613 1
2828 1613 1
134 2051 1
134 2562 1
134 1027 1
134 517 1
710 1 1
710 2056 1
2757 3074 1
2757 520 1
2695 2571 1
2695 1026 1
2695 3598 1
2695 1028 1
713 3074 1
713 3589 1
3848 520 1
2257 2139 1
2257 2055 1
1118 2253 1
1118 2568 1
1118 2573 1
1118 1061 1
1118 1219 1
1118 104 1
1118 2145 1
1118 108 1
1118 3179 1
1236 1542 1
1236 1541 1
2696 87 1
2696 3589 1
2696 1600 1
2696 3124 1
2833 3638 1
1677 3225 1
1677 2056 1
1677 2594 1
1677 1576 1
2834 3256 1
2740 2050 1
2740 3590 1
2740 2561 1
2769 2566 1
2769 3 1
2836 1 1
2268 1026 1
2268 2072 1
647 2572 1
647 1025 1
647 211 1
647 33 1
1211 3586 1
1211 4 1
1211 3255 1
1337 2220 1
1340 3073 1
1844 1026 1
513 1 1
513 2050 1
513 2049 1
513 3074 1
513 2566 1
513 1030 1
513 3073 1
513 2 1
513 1542 1
513 1053 1
513 2571 1
513 27 1
513 3586 1
513 1541 1
513 3 1
513 7 1
513 2585 1
513 1545 1
513 2103 1
513 533 1
513 1538 1
513 3592 1
513 14 1
513 523 1
513 3608 1
513 3079 1
513 534 1
513 2082 1
513 3100 1
513 2572 1
513 2058 1
513 1537 1
513 516 1
513 3078 1
513 2062 1
513 514 1
513 3109 1
513 1052 1
513 3075 1
513 526 1
513 2563 1
513 3086 1
513 3615 1
513 2606 1
513 518 1
513 1559 1
513 3143 1
513 2077 1
513 2671 1
513 26 1
513 1077 1
513 2779 1
513 1810 1
513 1026 1
513 2564 1
513 2569 1
513 1544 1
513 521 1
513 3619 1
513 2581 1
513 3161 1
513 2073 1
513 891 1
513 5 1
513 2070 1
513 3122 1
513 1076 1
513 2173 1
513 3081 1
513 1565 1
513 41 1
513 2589 1
513 2159 1
513 1671 1
513 537 1
513 546 1
513 234 1
513 1025 1
513 3080 1
513 1543 1
513 3588 1
513 2051 1
513 2590 1
513 2593 1
513 2627 1
513 1546 1
513 3618 1
513 2578 1
513 1040 1
513 1033 1
513 2069 1
513 1566 1
513 3611 1
513 1094 1
513 1646 1
513 3620 1
513 1871 1
513 2125 1
513 2075 1
513 2115 1
513 2076 1
513 2756 1
513 1071 1
513 3104 1
513 1139 1
513 1733 1
513 2055 1
513 2568 1
513 3082 1
513 39 1
513 3094 1
513 3090 1
513 3598 1
513 519 1
513 3603 1
513 1592 1
513 2066 1
513 2222 1
513 2562 1
513 3102 1
513 55 1
513 3616 1
513 1127 1
513 1027 1
513 11 1
513 532 1
513 2132 1
513 3606 1
513 3663 1
513 2228 1
513 1034 1
513 1561 1
513 904 1
513 3083 1
513 92 1
513 163 1
513 1806 1
513 515 1
513 3088 1
513 2067 1
513 3145 1
513 2582 1
513 123 1
513 1674 1
513 1635 1
513 1042 1
513 98 1
513 1660 1
513 18 1
513 1137 1
513 3585 1
513 524 1
513 517 1
513 2570 1
513 20 1
513 1038 1
513 2573 1
513 1156 1
513 1029 1
513 1618 1
513 2056 1
513 3609 1
513 2143 1
513 6 1
513 112 1
513 600 1
513 2071 1
513 2123 1
513 2194 1
513 2090 1
513 120 1
513 3594 1
513 1044 1
513 21 1
513 1579 1
513 3136 1
513 3156 1
513 1580 1
513 3125 1
513 1112 1
513 811 1
513 807 1
513 131 1
513 846 1
513 1145 1
513 3085 1
513 1110 1
513 3111 1
513 2685 1
513 2677 1
513 1037 1
513 3132 1
513 788 1
513 1177 1
513 1577 1
513 1159 1
513 3642 1
513 3590 1
513 2587 1
513 3607 1
513 45 1
513 2576 1
513 3152 1
513 155 1
513 640 1
513 2060 1
513 679 1
513 2133 1
513 152 1
513 2264 1
513 2747 1
513 2561 1
513 1031 1
513 1032 1
513 3587 1
513 2068 1
513 1547 1
513 1028 1
513 2626 1
513 2567 1
513 2081 1
513 3091 1
513 2565 1
513 29 1
513 1039 1
513 1057 1
513 2135 1
513 1068 1
513 1632 1
513 2584 1
513 3670 1
513 2575 1
513 2652 1
513 1549 1
513 1086 1
513 1249 1
513 2701 1
513 1004 1
513 1570 1
513 1637 1
513 2790 1
513 3613 1
513 3655 1
513 3254 1
513 2592 1
513 88 1
513 2063 1
513 3643 1
513 2224 1
513 1066 1
513 2614 1
513 4 1
513 2574 1
513 1576 1
513 1550 1
513 2061 1
513 1084 1
513 2181 1
513 3268 1
513 162 1
513 1682 1
513 3593 1
513 3600 1
513 538 1
513 2180 1
513 1056 1
513 1602 1
513 2597 1
513 2668 1
513 161 1
513 2845 1
513 815 1
513 1607 1
513 2231 1
513 1210 1
513 3281 1
513 766 1
513 1540 1
513 2092 1
513 3089 1
513 3649 1
513 2279 1
513 1125 1
513 9 1
513 549 1
513 1589 1
513 2204 1
513 3137 1
513 3250 1
513 804 1
513 2608 1
513 2635 1
513 895 1
513 3597 1
513 1572 1
513 206 1
513 1891 1
513 897 1
513 1828 1
1544 1 1
1544 2050 1
1544 3074 1
1544 2566 1
1544 1030 1
1544 3073 1
1544 2 1
1544 3586 1
1544 2078 1
1544 1545 1
1544 1538 1
1544 2572 1
1544 1537 1
1544 3078 1
1544 2563 1
1544 3108 1
1544 1026 1
1544 2564 1
1544 1544 1
1544 543 1
1544 2070 1
1544 17 1
1544 3653 1
1544 1109 1
1544 537 1
1544 1025 1
1544 3588 1
1544 1055 1
1544 1033 1
1544 8 1
1544 24 1
1544 68 1
1544 210 1
1544 3640 1
1544 1553 1
1544 3104 1
1544 757 1
1544 513 1
1544 2083 1
1544 3076 1
1544 3090 1
1544 2562 1
1544 1562 1
1544 1034 1
1544 2167 1
1544 515 1
1544 2153 1
1544 1635 1
1544 947 1
1544 3585 1
1544 517 1
1544 522 1
1544 1029 1
1544 1618 1
1544 1815 1
1544 23 1
1544 3594 1
1544 3596 1
1544 1206 1
1544 1583 1
1544 2053 1
1544 3590 1
1544 189 1
1544 1098 1
1544 2576 1
1544 649 1
1544 3167 1
1544 1120 1
1544 2561 1
1544 3587 1
1544 2068 1
1544 1028 1
1544 542 1
1544 2630 1
1544 2565 1
1544 2575 1
1544 2652 1
1544 1636 1
1544 2701 1
1544 54 1
1544 2736 1
1544 3228 1
1544 4 1
1544 1550 1
1544 2623 1
1544 3672 1
1544 3634 1
1544 3593 1
1544 2577 1
1544 1201 1
1544 3277 1
1544 2805 1
1544 1540 1
1544 857 1
1544 2225 1
1544 3124 1
1544 722 1
1544 1914 1
3078 1 1
3078 2050 1
3078 2049 1
3078 3074 1
3078 3073 1
3078 2 1
3078 1542 1
3078 3586 1
3078 1541 1
3078 2595 1
3078 7 1
3078 1545 1
3078 1538 1
3078 3077 1
3078 3608 1
3078 3648 1
3078 2572 1
3078 1048 1
3078 1537 1
3078 516 1
3078 526 1
3078 3615 1
3078 518 1
3078 1026 1
3078 2569 1
3078 3650 1
3078 1076 1
3078 2140 1
3078 1565 1
3078 609 1
3078 2054 1
3078 2051 1
3078 1546 1
3078 3601 1
3078 1040 1
3078 2137 1
3078 1033 1
3078 8 1
3078 1009 1
3078 1691 1
3078 1553 1
3078 3664 1
3078 1096 1
3078 3174 1
3078 513 1
3078 3082 1
3078 3094 1
3078 3076 1
3078 2098 1
3078 32 1
3078 2113 1
3078 2734 1
3078 2086 1
3078 2603 1
3078 555 1
3078 1034 1
3078 2169 1
3078 3244 1
3078 10 1
3078 2582 1
3078 2152 1
3078 3185 1
3078 517 1
3078 1563 1
3078 2650 1
3078 3627 1
3078 2087 1
3078 2618 1
3078 3625 1
3078 2053 1
3078 1119 1
3078 2150 1
3078 2099 1
3078 3642 1
3078 1146 1
3078 651 1
3078 550 1
3078 2093 1
3078 1908 1
3078 3587 1
3078 2068 1
3078 1028 1
3078 1549 1
3078 2282 1
3078 3283 1
3078 3203 1
3078 3589 1
3078 1060 1
3078 2592 1
3078 4 1
3078 3092 1
3078 2604 1
3078 2117 1
3078 2681 1
3078 3593 1
3078 1155 1
3078 2740 1
3078 3221 1
3078 2280 1
3078 3110 1
3078 110 1
3078 3610 1
3078 1955 1
3078 1983 1
3078 2670 1
3618 2049 1
3618 3074 1
3618 1052 1
3618 3604 1
3618 1026 1
3618 2564 1
3618 521 1
3618 3081 1
3618 2589 1
3618 3659 1
3618 3080 1
3618 2051 1
3618 1546 1
3618 2055 1
3618 2066 1
3618 528 1
3618 2710 1
3618 1793 1
3618 1555 1
3618 2056 1
3618 1031 1
3618 3093 1
3618 542 1
3618 3214 1
3618 1215 1
3618 2574 1
3618 61 1
3618 1552 1
3618 1262 1
3618 1540 1
3618 773 1
522 1 1
522 2050 1
522 2049 1
522 3073 1
522 3617 1
522 3586 1
522 1541 1
522 3 1
522 1538 1
522 3592 1
522 3079 1
522 1537 1
522 514 1
522 3075 1
522 3604 1
522 1551 1
522 103 1
522 117 1
522 1026 1
522 2569 1
522 2588 1
522 1539 1
522 2059 1
522 2155 1
522 2589 1
522 1025 1
522 3080 1
522 2054 1
522 1543 1
522 535 1
522 531 1
522 87 1
522 2139 1
522 513 1
522 2568 1
522 519 1
522 2064 1
522 2057 1
522 3096 1
522 2624 1
522 864 1
522 2164 1
522 2598 1
522 3585 1
522 524 1
522 1038 1
522 1557 1
522 2105 1
522 2056 1
522 3135 1
522 2594 1
522 2229 1
522 1044 1
522 1045 1
522 21 1
522 2085 1
522 926 1
522 1092 1
522 182 1
522 155 1
522 733 1
522 664 1
522 2561 1
522 1028 1
522 2565 1
522 1057 1
522 2052 1
522 529 1
522 3589 1
522 2592 1
522 2772 1
522 1066 1
522 1676 1
522 107 1
522 162 1
522 3264 1
522 1264 1
522 991 1
522 3680 1
522 3089 1
522 1603 1
522 1129 1
522 1591 1
522 2225 1
522 2191 1
522 3238 1
522 3262 1
522 1831 1
3108 1 1
3108 2050 1
3108 1026 1
3108 2564 1
3108 3595 1
3108 1180 1
3108 77 1
3108 3270 1
3108 513 1
3108 3076 1
3108 1027 1
3108 30 1
3108 3083 1
3108 3585 1
3108 1557 1
3108 1059 1
3108 3596 1
3108 73 1
3108 558 1
3108 3629 1
3108 1031 1
3108 1558 1
3108 3587 1
3108 13 1
3108 19 1
3108 3593 1
3108 1595 1
21 1541 1
21 3 1
21 2595 1
21 2572 1
21 2062 1
21 514 1
21 78 1
21 2563 1
21 1551 1
21 539 1
21 1041 1
21 537 1
21 2593 1
21 2799 1
21 3620 1
21 513 1
21 2568 1
21 532 1
21 92 1
21 515 1
21 3614 1
21 3602 1
21 3101 1
21 2090 1
21 1070 1
21 2561 1
21 3587 1
21 2131 1
21 542 1
21 29 1
21 2616 1
21 1060 1
21 3634 1
21 836 1
21 1540 1
21 2737 1
2601 1 1
2601 3073 1
2601 1538 1
2601 534 1
2601 1537 1
2601 1026 1
2601 34 1
2601 1553 1
2601 2126 1
2601 49 1
2601 2618 1
2601 1132 1
2601 1587 1
2601 2584 1
2601 4 1
2601 1058 1
2601 2856 1
2052 1 1
2052 2049 1
2052 3074 1
2052 38 1
2052 3073 1
2052 2 1
2052 1542 1
2052 3586 1
2052 7 1
2052 1538 1
2052 3077 1
2052 523 1
2052 3079 1
2052 2082 1
2052 2572 1
2052 1073 1
2052 1537 1
2052 516 1
2052 3078 1
2052 514 1
2052 1621 1
2052 2563 1
2052 3652 1
2052 1559 1
2052 2077 1
2052 2156 1
2052 1026 1
2052 2564 1
2052 2588 1
2052 521 1
2052 2073 1
2052 3599 1
2052 5 1
2052 1548 1
2052 3081 1
2052 2631 1
2052 1126 1
2052 1025 1
2052 2054 1
2052 22 1
2052 3588 1
2052 1043 1
2052 2051 1
2052 81 1
2052 1566 1
2052 1686 1
2052 1259 1
2052 68 1
2052 2074 1
2052 1105 1
2052 3664 1
2052 1096 1
2052 2055 1
2052 2568 1
2052 39 1
2052 3090 1
2052 2562 1
2052 1027 1
2052 2064 1
2052 2057 1
2052 536 1
2052 3083 1
2052 3244 1
2052 2110 1
2052 1751 1
2052 2226 1
2052 517 1
2052 1029 1
2052 2586 1
2052 1557 1
2052 2599 1
2052 3661 1
2052 1630 1
2052 2079 1
2052 3251 1
2052 2123 1
2052 3166 1
2052 3141 1
2052 3594 1
2052 3625 1
2052 1556 1
2052 3596 1
2052 3158 1
2052 2704 1
2052 1036 1
2052 3111 1
2052 3140 1
2052 2587 1
2052 2576 1
2052 2171 1
2052 2561 1
2052 3587 1
2052 1028 1
2052 2567 1
2052 3142 1
2052 1039 1
2052 2052 1
2052 1634 1
2052 2575 1
2052 529 1
2052 3613 1
2052 19 1
2052 47 1
2052 1047 1
2052 3668 1
2052 3636 1
2052 3177 1
2052 3218 1
2052 2220 1
2052 1839 1
3091 1 1
3091 3074 1
3091 3073 1
3091 3586 1
3091 7 1
3091 533 1
3091 523 1
3091 3669 1
3091 2062 1
3091 2563 1
3091 2077 1
3091 2569 1
3091 521 1
3091 1539 1
3091 1548 1
3091 3081 1
3091 1025 1
3091 2121 1
3091 2580 1
3091 513 1
3091 2055 1
3091 3076 1
3091 519 1
3091 50 1
3091 2067 1
3091 522 1
3091 2637 1
3091 3612 1
3091 3590 1
3091 530 1
3091 2583 1
3091 2584 1
3091 3589 1
3091 1050 1
3091 2614 1
3091 2574 1
3091 569 1
3091 47 1
3091 2723 1
31 1 1
31 1030 1
31 3073 1
31 1542 1
31 2571 1
31 3586 1
31 3592 1
31 3086 1
31 1026 1
31 1025 1
31 3601 1
31 3667 1
31 145 1
31 205 1
31 517 1
31 2573 1
31 57 1
31 1029 1
31 23 1
31 2090 1
31 2108 1
31 2099 1
31 3180 1
31 66 1
31 15 1
31 2561 1
31 1028 1
31 2565 1
31 659 1
31 4 1
31 1147 1
2622 7 1
2622 3615 1
2622 1559 1
2622 3601 1
2622 90 1
2622 3602 1
2622 858 1
2622 2561 1
2622 1547 1
2622 1068 1
2622 2636 1
2622 2111 1
2573 1 1
2573 2049 1
2573 1030 1
2573 1541 1
2573 3 1
2573 3075 1
2573 3108 1
2573 1026 1
2573 2804 1
2573 3633 1
2573 1049 1
2573 1043 1
2573 2051 1
2573 3601 1
2573 1033 1
2573 8 1
2573 520 1
2573 2209 1
2573 513 1
2573 32 1
2573 3102 1
2573 2065 1
2573 2067 1
2573 100 1
2573 3585 1
2573 2573 1
2573 1563 1
2573 3596 1
2573 3642 1
2573 3152 1
2573 1114 1
2573 1031 1
2573 13 1
2573 3091 1
2573 2565 1
2573 2652 1
2573 3589 1
2573 3269 1
2573 3593 1
2573 1047 1
2573 2245 1
2573 1123 1
2573 2213 1
2112 1 1
2112 3586 1
2112 2572 1
2112 521 1
2112 1025 1
2112 1568 1
2112 1641 1
2112 2057 1
2112 517 1
2112 2574 1
2112 135 1
2112 1571 1
3635 1 1
3635 1559 1
3635 1539 1
3635 2568 1
3635 1029 1
3635 1045 1
3635 1615 1
3635 2060 1
3635 3093 1
3635 1265 1
3635 3095 1
3635 44 1
3635 1149 1
3635 1252 1
3635 698 1
3710 1042 1
3710 33 1
3710 3144 1
3710 2636 1
3710 40 1
2054 1 1
2054 2050 1
2054 2049 1
2054 3074 1
2054 1030 1
2054 3073 1
2054 1542 1
2054 27 1
2054 7 1
2054 2078 1
2054 1545 1
2054 3079 1
2054 2572 1
2054 1048 1
2054 174 1
2054 1537 1
2054 1052 1
2054 1085 1
2054 3075 1
2054 86 1
2054 3289 1
2054 1026 1
2054 2564 1
2054 2698 1
2054 521 1
2054 1573 1
2054 2581 1
2054 2059 1
2054 5 1
2054 2070 1
2054 17 1
2054 1109 1
2054 3081 1
2054 1025 1
2054 34 1
2054 28 1
2054 3588 1
2054 3601 1
2054 2183 1
2054 67 1
2054 1187 1
2054 2074 1
2054 2580 1
2054 513 1
2054 3082 1
2054 3090 1
2054 3603 1
2054 2562 1
2054 3102 1
2054 1027 1
2054 3606 1
2054 3118 1
2054 3083 1
2054 2177 1
2054 2065 1
2054 515 1
2054 89 1
2054 2119 1
2054 3213 1
2054 3185 1
2054 3585 1
2054 1038 1
2054 1557 1
2054 2056 1
2054 1059 1
2054 2079 1
2054 2123 1
2054 1172 1
2054 2053 1
2054 3111 1
2054 2716 1
2054 3131 1
2054 1577 1
2054 1594 1
2054 2611 1
2054 527 1
2054 2576 1
2054 2097 1
2054 198 1
2054 2703 1
2054 2060 1
2054 1095 1
2054 619 1
2054 2561 1
2054 1558 1
2054 3587 1
2054 2567 1
2054 2565 1
2054 1039 1
2054 109 1
2054 2052 1
2054 3197 1
2054 1549 1
2054 2282 1
2054 19 1
2054 2286 1
2054 711 1
2054 1552 1
2054 2160 1
2054 164 1
2054 1064 1
2054 2688 1
2054 2265 1
2054 3336 1
1570 1 1
1570 3074 1
1570 3586 1
1570 3 1
1570 2572 1
1570 1537 1
1570 1026 1
1570 3599 1
1570 1548 1
1570 537 1
1570 1025 1
1570 8 1
1570 2074 1
1570 2632 1
1570 2568 1
1570 3598 1
1570 1034 1
1570 3126 1
1570 18 1
1570 3585 1
1570 524 1
1570 1059 1
1570 36 1
1570 1913 1
1570 2052 1
1570 19 1
1570 3634 1
1570 2577 1
1570 2227 1
1570 1605 1
2588 1 1
2588 2049 1
2588 3073 1
2588 1541 1
2588 1538 1
2588 1537 1
2588 1564 1
2588 1025 1
2588 531 1
2588 1040 1
2588 1566 1
2588 24 1
2588 2718 1
2588 2113 1
2588 1562 1
2588 2065 1
2588 71 1
2588 3585 1
2588 2573 1
2588 1029 1
2588 1162 1
2588 803 1
2588 3594 1
2588 2628 1
2588 3111 1
2588 2565 1
2588 3155 1
2588 3098 1
2588 1576 1
2588 3239 1
2588 2705 1
2588 3597 1
2588 1572 1
73 1 1
73 3586 1
73 2062 1
73 3204 1
73 3585 1
73 3099 1
73 1219 1
73 2583 1
73 3589 1
73 2604 1
73 566 1
529 1 1
529 3591 1
529 3074 1
529 2566 1
529 3586 1
529 1545 1
529 3621 1
529 1538 1
529 534 1
529 1085 1
529 3075 1
529 1564 1
529 3103 1
529 5 1
529 2270 1
529 1025 1
529 3080 1
529 3667 1
529 513 1
529 519 1
529 3102 1
529 2057 1
529 3585 1
529 524 1
529 517 1
529 2570 1
529 2056 1
529 3627 1
529 3101 1
529 3251 1
529 2053 1
529 920 1
529 147 1
529 1627 1
529 2093 1
529 1032 1
529 2688 1
529 1599 1
529 3610 1
529 1801 1
2105 2049 1
2105 2073 1
2105 1645 1
2105 2568 1
2105 1046 1
2105 2586 1
2105 1159 1
2105 2060 1
2105 1028 1
2105 1089 1
2105 1540 1
2105 1074 1
2105 592 1
587 1 1
587 2566 1
587 3079 1
587 1537 1
587 1026 1
587 2051 1
587 531 1
587 513 1
587 2689 1
587 522 1
587 3644 1
2204 1026 1
2204 1025 1
2204 2568 1
2204 2053 1
3603 1 1
3603 2049 1
3603 3074 1
3603 1542 1
3603 525 1
3603 533 1
3603 3084 1
3603 3109 1
3603 2564 1
3603 1544 1
3603 17 1
3603 3588 1
3603 2051 1
3603 8 1
3603 513 1
3603 2083 1
3603 12 1
3603 42 1
3603 3660 1
3603 2722 1
3603 524 1
3603 1038 1
3603 1557 1
3603 3625 1
3603 3125 1
3603 2561 1
3603 2068 1
3603 1028 1
3603 13 1
3603 2565 1
3603 1068 1
3603 1093 1
3603 4 1
3603 3092 1
3603 1552 1
3603 151 1
3603 9 1
3603 698 1
3603 1930 1
1062 1 1
1062 2049 1
1062 3073 1
1062 525 1
1062 2572 1
1062 3075 1
1062 1077 1
1062 2564 1
1062 543 1
1062 3653 1
1062 185 1
1062 1025 1
1062 2593 1
1062 1561 1
1062 608 1
1062 73 1
1062 1035 1
1062 2565 1
1062 2577 1
1062 835 1
1062 1074 1
611 1539 1
611 17 1
611 3080 1
611 8 1
611 515 1
611 2586 1
611 3594 1
611 2053 1
1688 1546 1
1688 513 1
1688 2584 1
1688 2846 1
2177 1542 1
2177 2634 1
2177 3120 1
2177 3227 1
2177 680 1
1152 1537 1
1152 3639 1
1152 3589 1
1152 2604 1
1152 3130 1
803 57 1
1267 1068 1
1267 2172 1
514 1 1
514 2049 1
514 3074 1
514 3073 1
514 3586 1
514 7 1
514 1545 1
514 533 1
514 1538 1
514 3592 1
514 3077 1
514 1574 1
514 2572 1
514 3107 1
514 1048 1
514 2619 1
514 3084 1
514 1537 1
514 514 1
514 86 1
514 1559 1
514 1551 1
514 1026 1
514 2564 1
514 2588 1
514 1544 1
514 1548 1
514 2631 1
514 2232 1
514 3080 1
514 1543 1
514 22 1
514 1569 1
514 2051 1
514 2621 1
514 1546 1
514 3601 1
514 2116 1
514 2069 1
514 1566 1
514 8 1
514 24 1
514 1106 1
514 520 1
514 2074 1
514 2622 1
514 2115 1
514 3667 1
514 150 1
514 513 1
514 2055 1
514 3076 1
514 519 1
514 12 1
514 1027 1
514 2132 1
514 528 1
514 2603 1
514 536 1
514 30 1
514 3083 1
514 913 1
514 2598 1
514 3651 1
514 1135 1
514 767 1
514 1042 1
514 2146 1
514 962 1
514 3585 1
514 524 1
514 522 1
514 2056 1
514 1630 1
514 6 1
514 3622 1
514 1045 1
514 578 1
514 2053 1
514 2080 1
514 3111 1
514 1617 1
514 3140 1
514 3590 1
514 1724 1
514 2158 1
514 638 1
514 2759 1
514 661 1
514 1031 1
514 1558 1
514 3587 1
514 2068 1
514 1547 1
514 1028 1
514 2567 1
514 2084 1
514 29 1
514 1057 1
514 1951 1
514 2052 1
514 1069 1
514 1023 1
514 2282 1
514 19 1
514 54 1
514 2674 1
514 3643 1
514 691 1
514 4 1
514 3191 1
514 3634 1
514 1104 1
514 133 1
514 816 1
514 1064 1
514 35 1
514 2092 1
514 2219 1
514 3089 1
514 3647 1
514 2275 1
514 540 1
514 3628 1
514 3110 1
514 1609 1
514 874 1
514 1680 1
514 3597 1
514 2147 1
1564 1 1
1564 2050 1
1564 7 1
1564 3592 1
1564 3078 1
1564 95 1
1564 1544 1
1564 521 1
1564 137 1
1564 3081 1
1564 1025 1
1564 2054 1
1564 2185 1
1564 1105 1
1564 1643 1
1564 513 1
1564 3598 1
1564 519 1
1564 3603 1
1564 12 1
1564 1027 1
1564 3126 1
1564 1579 1
1564 3085 1
1564 217 1
1564 1032 1
1564 3587 1
1564 2660 1
1564 3589 1
1564 54 1
1564 1054 1
1564 200 1
1564 3114 1
2574 1 1
2574 1030 1
2574 38 1
2574 2 1
2574 1537 1
2574 526 1
2574 3086 1
2574 1026 1
2574 539 1
2574 1565 1
2574 8 1
2574 1230 1
2574 3632 1
2574 77 1
2574 1138 1
2574 2066 1
2574 2562 1
2574 3102 1
2574 1027 1
2574 50 1
2574 2120 1
2574 556 1
2574 18 1
2574 517 1
2574 1063 1
2574 6 1
2574 23 1
2574 3596 1
2574 3099 1
2574 2107 1
2574 2130 1
2574 2200 1
2574 1032 1
2574 3587 1
2574 1101 1
2574 2063 1
2574 973 1
2574 4 1
2574 1054 1
2574 538 1
2574 2605 1
2574 2157 1
1071 7 1
1071 3669 1
1071 521 1
1071 2581 1
1071 5 1
1071 3081 1
1071 3633 1
1071 1567 1
1071 2729 1
1071 2085 1
1071 1050 1
1071 2149 1
1071 538 1
1071 223 1
1071 1611 1
3109 1 1
3109 3073 1
3109 1537 1
3109 589 1
3109 2563 1
3109 1026 1
3109 3619 1
3109 5 1
3109 1548 1
3109 1025 1
3109 2568 1
3109 3616 1
3109 3679 1
3109 2057 1
3109 1063 1
3109 3101 1
3109 2085 1
3109 1037 1
3109 2060 1
3109 530 1
3109 54 1
3109 1050 1
3109 2181 1
3109 2642 1
3109 693 1
569 1 1
569 2050 1
569 1541 1
569 3075 1
569 3624 1
569 3615 1
569 2155 1
569 34 1
569 2590 1
569 520 1
569 3585 1
569 73 1
569 530 1
1114 3591 1
1114 535 1
1114 1562 1
1114 3612 1
1114 1556 1
1114 1028 1
1114 1677 1
1114 3261 1
1114 3110 1
1178 17 1
1178 1025 1
1178 3230 1
1178 2060 1
2594 1 1
2594 3074 1
2594 3077 1
2594 2591 1
2594 26 1
2594 1573 1
2594 1025 1
2594 1546 1
2594 8 1
2594 2638 1
2594 3170 1
2594 52 1
2594 2570 1
2594 522 1
2594 2079 1
2594 1593 1
2594 1159 1
2594 3117 1
2594 2561 1
2594 1032 1
2594 3587 1
2594 530 1
2594 2567 1
2594 64 1
2594 2592 1
2594 3643 1
2594 1084 1
2594 1540 1
2594 685 1
2594 1611 1
50 2049 1
50 1053 1
50 3586 1
50 2082 1
50 2563 1
50 1062 1
50 2069 1
50 11 1
50 1630 1
50 3594 1
50 3596 1
50 2080 1
50 54 1
50 2629 1
565 2050 1
565 1538 1
565 2054 1
565 1566 1
565 513 1
565 2702 1
565 2071 1
565 2053 1
565 2760 1
565 2141 1
565 2561 1
565 581 1
565 1089 1
565 1214 1
2708 7 1
2708 1546 1
2708 23 1
2708 1628 1
1593 2572 1
1593 514 1
1593 1026 1
1593 2564 1
1593 1041 1
1593 1040 1
1593 1566 1
1593 97 1
1593 1556 1
1593 2104 1
1593 94 1
1593 538 1
1593 1604 1
3177 3074 1
3177 1102 1
3177 3113 1
3177 1031 1
3177 1125 1
3177 590 1
3738 525 1
3738 2062 1
3738 2288 1
3738 1549 1
2348 1033 1
2081 1 1
2081 2049 1
2081 2 1
2081 1053 1
2081 2571 1
2081 1541 1
2081 1538 1
2081 2058 1
2081 1670 1
2081 2563 1
2081 3086 1
2081 1026 1
2081 3081 1
2081 3588 1
2081 1312 1
2081 513 1
2081 2086 1
2081 522 1
2081 2072 1
2081 3644 1
2081 762 1
2081 3140 1
2081 1082 1
2081 3607 1
2081 1090 1
2081 1915 1
2081 2561 1
2081 2052 1
2081 1552 1
2081 3137 1
2081 3160 1
3629 1 1
3629 2049 1
3629 3073 1
3629 1537 1
3629 1564 1
3629 1544 1
3629 3161 1
3629 1683 1
3629 41 1
3629 1578 1
3629 1075 1
3629 152 1
3629 3587 1
3629 1028 1
3629 1060 1
3629 19 1
3629 1240 1
96 1 1
96 2571 1
96 3586 1
96 1544 1
96 1033 1
96 2076 1
96 513 1
2162 3073 1
2162 1040 1
2162 3585 1
2162 2196 1
2162 3666 1
2162 1123 1
560 1545 1
560 2591 1
560 3100 1
560 2563 1
560 30 1
560 515 1
560 2060 1
560 1895 1
560 2584 1
560 1658 1
560 3169 1
560 3593 1
560 1600 1
560 126 1
560 1205 1
634 1538 1
634 3624 1
634 2569 1
634 24 1
634 1592 1
1198 1 1
1198 2563 1
1198 1025 1
79 1539 1
79 3675 1
79 2069 1
79 520 1
79 2126 1
79 2565 1
79 780 1
79 43 1
79 35 1
79 1065 1
1658 1 1
1658 7 1
1658 3596 1
1658 2561 1
1658 3587 1
658 1 1
658 3073 1
658 2570 1
658 2097 1
3365 610 1
2705 3604 1
2705 87 1
2705 1588 1
2705 1605 1
515 1 1
515 2050 1
515 2049 1
515 3591 1
515 3074 1
515 3073 1
515 3586 1
515 3 1
515 1545 1
515 3621 1
515 525 1
515 1538 1
515 3592 1
515 3077 1
515 1136 1
515 3084 1
515 1537 1
515 516 1
515 3078 1
515 2563 1
515 518 1
515 3087 1
515 2601 1
515 1026 1
515 1062 1
515 1573 1
515 1539 1
515 2059 1
515 5 1
515 1041 1
515 1076 1
515 1565 1
515 2129 1
515 1025 1
515 2054 1
515 1543 1
515 1569 1
515 535 1
515 1546 1
515 3601 1
515 2578 1
515 2116 1
515 8 1
515 2074 1
515 3105 1
515 666 1
515 2648 1
515 74 1
515 2139 1
515 150 1
515 513 1
515 39 1
515 3076 1
515 519 1
515 2562 1
515 3102 1
515 12 1
515 3120 1
515 536 1
515 1666 1
515 10 1
515 1763 1
515 524 1
515 2570 1
515 1038 1
515 2072 1
515 2573 1
515 1029 1
515 2594 1
515 3627 1
515 6 1
515 1809 1
515 2090 1
515 3156 1
515 1167 1
515 1580 1
515 33 1
515 1582 1
515 572 1
515 2053 1
515 2749 1
515 2150 1
515 2148 1
515 3629 1
515 2097 1
515 3665 1
515 1662 1
515 1075 1
515 1941 1
515 3666 1
515 2096 1
515 3276 1
515 2561 1
515 1558 1
515 3587 1
515 1028 1
515 530 1
515 2084 1
515 29 1
515 2728 1
515 3176 1
515 1549 1
515 529 1
515 3589 1
515 1060 1
515 3254 1
515 4 1
515 2061 1
515 47 1
515 3269 1
515 58 1
515 3315 1
515 1603 1
515 1074 1
515 114 1
515 3186 1
515 1295 1
515 566 1
515 725 1
515 1173 1
2572 1 1
2572 2049 1
2572 3074 1
2572 3 1
2572 1538 1
2572 3077 1
2572 1048 1
2572 3084 1
2572 516 1
2572 514 1
2572 2569 1
2572 3599 1
2572 41 1
2572 1025 1
2572 1543 1
2572 28 1
2572 2051 1
2572 3618 1
2572 2118 1
2572 520 1
2572 513 1
2572 2612 1
2572 1562 1
2572 2057 1
2572 2784 1
2572 2067 1
2572 2119 1
2572 3585 1
2572 1038 1
2572 1031 1
2572 3587 1
2572 2565 1
2572 19 1
2572 3654 1
2572 1677 1
2572 4 1
2572 1054 1
2572 1099 1
2572 3600 1
2572 753 1
2572 2317 1
2572 3610 1
2572 2261 1
2572 3162 1
3089 1 1
3089 3073 1
3089 1542 1
3089 523 1
3089 3608 1
3089 3100 1
3089 1048 1
3089 78 1
3089 3615 1
3089 3143 1
3089 1026 1
3089 2569 1
3089 537 1
3089 1543 1
3089 2051 1
3089 513 1
3089 3094 1
3089 1757 1
3089 845 1
3089 3585 1
3089 1038 1
3089 2594 1
3089 3274 1
3089 3101 1
3089 6 1
3089 1593 1
3089 3141 1
3089 3156 1
3089 2053 1
3089 2100 1
3089 2576 1
3089 2561 1
3089 3589 1
3089 4 1
3089 2636 1
3089 3593 1
3089 1124 1
3089 40 1
3089 2848 1
3089 164 1
3142 2571 1
3142 3586 1
3142 3084 1
3142 3641 1
3142 2632 1
3142 513 1
3142 2562 1
3142 50 1
3142 938 1
3142 1557 1
3142 577 1
1045 1 1
1045 2049 1
1045 3074 1
1045 1030 1
1045 2078 1
1045 3592 1
1045 3077 1
1045 518 1
1045 2588 1
1045 1544 1
1045 521 1
1045 1025 1
1045 1106 1
1045 513 1
1045 519 1
1045 2057 1
1045 145 1
1045 2598 1
1045 3585 1
1045 524 1
1045 36 1
1045 1036 1
1045 1619 1
1045 3132 1
1045 3590 1
1045 66 1
1045 3159 1
1045 1547 1
1045 2052 1
1045 2700 1
1045 3098 1
1045 3630 1
1045 2102 1
1045 1540 1
1045 1248 1
1045 84 1
1117 2058 1
1117 1537 1
1117 1033 1
1117 1553 1
1117 3101 1
1117 2628 1
1117 222 1
1117 35 1
1117 950 1
90 1 1
90 3079 1
90 2058 1
90 524 1
90 3594 1
90 1110 1
90 3183 1
90 3593 1
2170 2656 1
2170 118 1
2170 958 1
2170 3089 1
2170 1214 1
13 2050 1
13 2049 1
13 3074 1
13 3107 1
13 2607 1
13 516 1
13 3075 1
13 2563 1
13 3086 1
13 1551 1
13 2564 1
13 1539 1
13 3122 1
13 1025 1
13 1543 1
13 3273 1
13 8 1
13 3105 1
13 3104 1
13 2083 1
13 2562 1
13 1555 1
13 1029 1
13 1557 1
13 1130 1
13 3206 1
13 1613 1
13 2053 1
13 3210 1
13 2720 1
13 195 1
13 2655 1
13 2561 1
13 1031 1
13 1032 1
13 720 1
13 3095 1
13 1099 1
13 2688 1
13 1540 1
13 35 1
13 2645 1
13 554 1
3679 2049 1
3679 1029 1
3679 3609 1
3679 3590 1
3679 1028 1
3679 1639 1
3679 2181 1
3679 9 1
1627 1026 1
1627 3133 1
1627 2057 1
1627 522 1
1627 3141 1
1627 3172 1
1627 177 1
1627 1540 1
1714 1026 1
1714 1566 1
1714 530 1
3654 1537 1
3654 2601 1
3654 1026 1
3654 3637 1
3654 3106 1
3654 2057 1
3654 3651 1
3654 2090 1
3654 2080 1
3654 1163 1
3654 2796 1
1652 3073 1
1652 2078 1
1652 2058 1
1652 1062 1
1652 2623 1
3705 1538 1
3705 3592 1
3705 2661 1
3705 1547 1
3705 2565 1
1554 1 1
1554 2050 1
1554 2566 1
1554 3617 1
1554 1541 1
1554 3 1
1554 2078 1
1554 1538 1
1554 523 1
1554 3079 1
1554 3648 1
1554 1048 1
1554 514 1
1554 2643 1
1554 3080 1
1554 666 1
1554 1096 1
1554 1643 1
1554 3082 1
1554 3076 1
1554 1034 1
1554 10 1
1554 82 1
1554 808 1
1554 1875 1
1554 51 1
1554 3135 1
1554 1045 1
1554 2576 1
1554 1032 1
1554 13 1
1554 530 1
1554 1051 1
1554 2616 1
1554 47 1
1554 2820 1
1554 943 1
1554 3316 1
1554 9 1
3631 1 1
3631 3 1
3631 3592 1
3631 1537 1
3631 1026 1
3631 3138 1
3631 1180 1
3631 1034 1
3631 1183 1
3631 1557 1
3631 3657 1
3631 1097 1
3631 1028 1
3631 3165 1
3631 3089 1
3631 3324 1
3656 3073 1
3656 3592 1
3656 514 1
3656 1026 1
3656 2580 1
3656 1105 1
3656 513 1
3656 1615 1
3656 2193 1
3656 2565 1
3656 149 1
2356 3108 1
66 1 1
66 2566 1
66 3073 1
66 3079 1
66 17 1
66 1043 1
66 2057 1
66 89 1
66 3085 1
66 1032 1
66 2252 1
1687 1546 1
1687 10 1
1687 1608 1
1687 1227 1
1196 3586 1
1196 1035 1
1196 3139 1
3355 2166 1
661 1026 1
661 1025 1
661 513 1
661 3189 1
793 2615 1
2687 1026 1
2687 2564 1
2687 2086 1
2687 3590 1
2687 3207 1
3351 2582 1
110 2051 1
110 1148 1
110 36 1
110 3129 1
110 1188 1
110 538 1
3354 3586 1
1266 1032 1
1266 2575 1
2076 2049 1
2076 3591 1
2076 3074 1
2076 2566 1
2076 523 1
2076 3075 1
2076 2606 1
2076 2077 1
2076 3289 1
2076 1026 1
2076 2564 1
2076 2588 1
2076 3081 1
2076 2627 1
2076 2055 1
2076 1046 1
2076 2144 1
2076 11 1
2076 1555 1
2076 2570 1
2076 1081 1
2076 2611 1
2076 13 1
2076 3193 1
2076 3214 1
2076 1549 1
2076 3092 1
2076 1054 1
2076 1626 1
2076 2138 1
2076 2577 1
2076 3220 1
2076 914 1
2076 2780 1
551 1 1
551 3586 1
551 525 1
551 1026 1
551 2569 1
551 1544 1
551 1573 1
551 22 1
551 2568 1
551 2562 1
551 2057 1
551 3585 1
551 1044 1
551 1594 1
551 1032 1
551 109 1
551 1636 1
551 795 1
551 1581 1
551 3137 1
3627 1 1
3627 1542 1
3627 3592 1
3627 2591 1
3627 2564 1
3627 535 1
3627 519 1
3627 3585 1
3627 2056 1
3627 3166 1
3627 1556 1
3627 1625 1
3627 2561 1
3627 4 1
3627 47 1
3627 2597 1
3627 2608 1
3627 1707 1
221 5 1
221 1025 1
577 3586 1
577 3079 1
577 3075 1
577 3081 1
577 1025 1
577 1546 1
577 3585 1
577 1120 1
577 1051 1
577 1602 1
577 2111 1
577 895 1
133 516 1
133 1741 1
133 1549 1
133 2089 1
3284 3585 1
3284 1045 1
3113 1 1
3113 2049 1
3113 3084 1
3113 1537 1
3113 2569 1
3113 539 1
3113 16 1
3113 1546 1
3113 8 1
3113 2580 1
3113 2694 1
3113 1027 1
3113 1115 1
3113 1587 1
3113 2565 1
3113 2135 1
3113 569 1
3113 2605 1
624 3591 1
624 514 1
624 1543 1
624 1078 1
624 15 1
624 2567 1
1164 3073 1
1164 2590 1
1164 2083 1
1164 1036 1
2846 1538 1
103 2563 1
103 2569 1
103 3080 1
103 2568 1
103 101 1
103 1285 1
1329 520 1
3359 9 1
3127 2050 1
3127 2 1
3127 3 1
3127 1048 1
3127 3078 1
3127 2564 1
3127 2581 1
3127 1025 1
3127 46 1
3127 1635 1
3127 1563 1
3127 545 1
3127 3593 1
726 1 1
726 1686 1
2141 2572 1
2141 1026 1
2141 521 1
2141 1041 1
2141 1543 1
2141 3104 1
2141 93 1
2141 1064 1
1836 3075 1
130 2566 1
130 3595 1
130 3585 1
130 1028 1
130 3169 1
1770 2198 1
1770 249 1
2233 2050 1
2233 2049 1
2233 3199 1
1259 2563 1
1259 1635 1
3867 2215 1
270 1 1
2056 1 1
2056 2050 1
2056 2049 1
2056 2566 1
2056 1541 1
2056 3621 1
2056 1538 1
2056 14 1
2056 2082 1
2056 1537 1
2056 516 1
2056 3078 1
2056 514 1
2056 3086 1
2056 518 1
2056 2077 1
2056 3087 1
2056 1544 1
2056 1539 1
2056 2059 1
2056 2070 1
2056 1548 1
2056 17 1
2056 1565 1
2056 1055 1
2056 2051 1
2056 3601 1
2056 1646 1
2056 24 1
2056 520 1
2056 2622 1
2056 3157 1
2056 2211 1
2056 3082 1
2056 3076 1
2056 2126 1
2056 3603 1
2056 2086 1
2056 11 1
2056 3606 1
2056 97 1
2056 2638 1
2056 3662 1
2056 2603 1
2056 2639 1
2056 3083 1
2056 2598 1
2056 1660 1
2056 3585 1
2056 524 1
2056 541 1
2056 20 1
2056 522 1
2056 1029 1
2056 1557 1
2056 2599 1
2056 2079 1
2056 33 1
2056 2053 1
2056 3085 1
2056 1560 1
2056 2867 1
2056 942 1
2056 1554 1
2056 189 1
2056 527 1
2056 915 1
2056 2665 1
2056 1623 1
2056 1624 1
2056 607 1
2056 2561 1
2056 1032 1
2056 2565 1
2056 2641 1
2056 3176 1
2056 1636 1
2056 115 1
2056 3098 1
2056 2061 1
2056 601 1
2056 2230 1
2056 1140 1
2056 1047 1
2056 133 1
2056 259 1
2056 1540 1
2056 3139 1
2056 3137 1
2056 890 1
2056 3186 1
2056 2234 1
2056 2257 1
2056 3597 1
2056 2746 1
2056 2883 1
3608 1 1
3608 2050 1
3608 1030 1
3608 1541 1
3608 1537 1
3608 3087 1
3608 2059 1
3608 3080 1
3608 28 1
3608 1546 1
3608 2185 1
3608 46 1
3608 1553 1
3608 2632 1
3608 3082 1
3608 2573 1
3608 1618 1
3608 3125 1
3608 2053 1
3608 586 1
3608 2667 1
3608 15 1
3608 1032 1
3608 3587 1
3608 13 1
3608 1634 1
3608 4 1
3608 2117 1
3608 190 1
3608 3593 1
3608 1047 1
3608 2243 1
3608 3623 1
3608 1185 1
3608 1609 1
3608 3610 1
1558 1 1
1558 2049 1
1558 3073 1
1558 1538 1
1558 3592 1
1558 3084 1
1558 1537 1
1558 514 1
1558 3075 1
1558 2590 1
1558 1033 1
1558 2124 1
1558 3076 1
1558 2562 1
1558 1027 1
1558 3585 1
1558 1582 1
1558 2053 1
1558 2176 1
1558 1037 1
1558 2561 1
1558 13 1
1558 3147 1
1558 1068 1
1558 2575 1
1558 2701 1
1558 1060 1
1558 3626 1
1558 3098 1
1558 3303 1
1558 820 1
1558 1229 1
1558 1540 1
1558 946 1
1558 3110 1
1558 201 1
1558 1877 1
1625 1 1
1625 2050 1
1625 2566 1
1625 1545 1
1625 514 1
1625 1076 1
1625 1567 1
1625 1040 1
1625 2075 1
10 1 1
10 2050 1
10 3074 1
10 3073 1
10 533 1
10 1537 1
10 514 1
10 3075 1
10 925 1
10 2588 1
10 2073 1
10 1548 1
10 17 1
10 137 1
10 3641 1
10 1025 1
10 2051 1
10 3671 1
10 3105 1
10 513 1
10 2055 1
10 2568 1
10 32 1
10 2064 1
10 48 1
10 1561 1
10 30 1
10 2782 1
10 10 1
10 89 1
10 2570 1
10 2072 1
10 3609 1
10 3101 1
10 3166 1
10 2797 1
10 3085 1
10 1588 1
10 2060 1
10 2561 1
10 1032 1
10 2641 1
10 3613 1
10 3674 1
10 538 1
10 242 1
10 3160 1
10 3597 1
10 3179 1
10 1901 1
2113 1 1
2113 2049 1
2113 3586 1
2113 2563 1
2113 3652 1
2113 2054 1
2113 1100 1
2113 3590 1
2113 3155 1
2113 1089 1
2113 9 1
2113 1175 1
1086 3077 1
1086 1079 1
1086 3223 1
1086 3678 1
1086 6 1
1086 2053 1
1086 752 1
1086 2706 1
1086 1032 1
1086 2620 1
1086 3112 1
1086 2315 1
1643 7 1
1643 3075 1
1643 2054 1
1643 1027 1
1643 2056 1
1643 3610 1
2586 1 1
2586 2049 1
2586 3074 1
2586 1030 1
2586 38 1
2586 3073 1
2586 3586 1
2586 3077 1
2586 2572 1
2586 2058 1
2586 1544 1
2586 5 1
2586 1076 1
2586 1543 1
2586 2116 1
2586 1033 1
2586 3245 1
2586 513 1
2586 2596 1
2586 1034 1
2586 10 1
2586 2067 1
2586 101 1
2586 3585 1
2586 2106 1
2586 1563 1
2586 1578 1
2586 2053 1
2586 1070 1
2586 550 1
2586 2561 1
2586 13 1
2586 1608 1
2586 4 1
2586 1221 1
2138 1026 1
2138 5 1
2138 22 1
2138 1566 1
2138 520 1
2138 69 1
2138 1029 1
2138 1579 1
2138 3310 1
1076 3074 1
1076 3586 1
1076 1537 1
1076 2563 1
1076 3080 1
1076 3145 1
1076 2561 1
1076 1558 1
1076 2567 1
1076 2604 1
1076 1550 1
1076 3593 1
1076 1047 1
1076 3623 1
3868 2050 1
51 1 1
51 2049 1
51 2566 1
51 1564 1
51 2609 1
51 28 1
51 1033 1
51 1738 1
51 3088 1
51 18 1
51 524 1
51 2072 1
51 1540 1
51 3610 1
129 3077 1
129 516 1
129 515 1
129 3654 1
129 3597 1
3729 1559 1
3729 1025 1
3729 1546 1
3729 2570 1
3361 3586 1
1055 1 1
1055 2566 1
1055 1030 1
1055 1541 1
1055 1538 1
1055 1052 1
1055 2699 1
1055 2589 1
1055 1025 1
1055 1567 1
1055 24 1
1055 39 1
1055 2562 1
1055 2095 1
1055 1034 1
1055 2177 1
1055 2065 1
1055 515 1
1055 2090 1
1055 1044 1
1055 2704 1
1055 3085 1
1055 3587 1
1055 2068 1
1055 2584 1
1055 3613 1
1055 200 1
1055 3593 1
1055 1575 1
1055 2742 1
1055 1190 1
568 1 1
568 2566 1
568 3073 1
568 22 1
568 3637 1
568 3601 1
568 3082 1
568 1635 1
568 3612 1
568 2561 1
568 1032 1
568 1028 1
568 2626 1
568 2625 1
1092 1 1
1092 3074 1
1092 2572 1
1092 1026 1
1092 609 1
1092 1025 1
1092 1035 1
1092 2576 1
1092 1697 1
1092 663 1
1092 2577 1
1129 1 1
1129 3669 1
1129 1551 1
1129 3640 1
1129 1878 1
1129 3607 1
1129 559 1
3149 1 1
3149 1538 1
3149 3608 1
3149 3648 1
3149 2077 1
3149 2154 1
3149 2561 1
3149 1547 1
3149 13 1
3149 554 1
2232 2598 1
2232 20 1
2232 2085 1
2778 2563 1
2778 513 1
2848 521 1
2627 2049 1
2627 3 1
2627 1048 1
2627 1079 1
2627 16 1
2627 1546 1
2627 2057 1
2627 2586 1
2627 3622 1
2627 3629 1
2627 2565 1
2346 2601 1
138 523 1
138 1537 1
138 3138 1
138 3585 1
2275 3077 1
2275 1115 1
2060 1 1
2060 2050 1
2060 3073 1
2060 3586 1
2060 3078 1
2060 526 1
2060 3086 1
2060 1026 1
2060 5 1
2060 1644 1
2060 1543 1
2060 2590 1
2060 1546 1
2060 1654 1
2060 3157 1
2060 513 1
2060 39 1
2060 3076 1
2060 519 1
2060 2562 1
2060 2057 1
2060 3585 1
2060 522 1
2060 3123 1
2060 105 1
2060 2053 1
2060 3140 1
2060 1037 1
2060 3326 1
2060 2097 1
2060 2216 1
2060 2764 1
2060 2561 1
2060 1558 1
2060 2052 1
2060 2604 1
2060 620 1
2060 3600 1
2060 1056 1
2060 2597 1
2060 1603 1
2060 3130 1
2060 2203 1
2060 3124 1
2598 3073 1
2598 3586 1
2598 533 1
2598 2572 1
2598 3078 1
2598 514 1
2598 3075 1
2598 3086 1
2598 3108 1
2598 1026 1
2598 5 1
2598 3659 1
2598 185 1
2598 1025 1
2598 2066 1
2598 71 1
2598 3209 1
2598 3093 1
2598 2567 1
2598 2052 1
2598 1549 1
2598 1552 1
603 2566 1
603 2 1
603 1542 1
603 518 1
603 2137 1
603 513 1
603 3094 1
603 1556 1
603 1656 1
3195 2 1
3195 31 1
3195 3606 1
3195 2561 1
3195 1221 1
2107 1 1
2107 1030 1
2107 2564 1
2107 3103 1
2107 3080 1
2107 3588 1
2107 33 1
2107 2628 1
2107 2150 1
2107 1158 1
2107 2088 1
2107 3089 1
2107 3597 1
1204 2070 1
1204 1110 1
1204 3140 1
171 2564 1
171 1651 1
171 4 1
45 1 1
45 3073 1
45 7 1
45 3205 1
45 1537 1
45 1567 1
45 3601 1
45 3090 1
45 12 1
45 2132 1
45 1557 1
45 3113 1
45 3634 1
45 3636 1
45 3635 1
3193 1 1
3193 3073 1
3193 1545 1
3193 1538 1
3193 3585 1
2730 2050 1
2730 1026 1
2730 3234 1
219 1 1
219 2562 1
108 1 1
108 2563 1
108 519 1
108 30 1
108 3266 1
108 2565 1
1168 2050 1
1168 2049 1
1168 143 1
1168 3585 1
1835 3112 1
2694 1537 1
2694 6 1
2694 2314 1
2694 1540 1
1718 1 1
1718 1538 1
1718 3640 1
3201 1 1
3201 3611 1
3201 2628 1
3201 2108 1
220 24 1
220 13 1
1834 3074 1
724 93 1
724 3656 1
2693 1544 1
2693 1036 1
2693 13 1
2693 1116 1
800 2156 1
269 2571 1
2773 2050 1
2773 3082 1
2578 2049 1
2578 3591 1
2578 3074 1
2578 1542 1
2578 2664 1
2578 1541 1
2578 523 1
2578 3608 1
2578 3669 1
2578 2607 1
2578 2062 1
2578 3604 1
2578 1026 1
2578 17 1
2578 1025 1
2578 2118 1
2578 3598 1
2578 519 1
2578 1046 1
2578 30 1
2578 2110 1
2578 1675 1
2578 2570 1
2578 1038 1
2578 1131 1
2578 2071 1
2578 3166 1
2578 2192 1
2578 3590 1
2578 527 1
2578 726 1
2578 2068 1
2578 2567 1
2578 1057 1
2578 3605 1
2578 2575 1
2578 3169 1
2578 1089 1
2578 1091 1
101 3586 1
101 2564 1
101 1062 1
101 2793 1
101 2568 1
101 2584 1
101 1572 1
3141 1 1
3141 2585 1
3141 3075 1
3141 3609 1
3141 3594 1
3141 37 1
3141 2567 1
3141 2565 1
3141 4 1
3141 1089 1
3141 2748 1
1203 523 1
1203 11 1
1203 2561 1
581 1 1
581 2050 1
581 1538 1
581 2572 1
581 3588 1
581 1029 1
581 1032 1
581 1549 1
581 1540 1
581 1595 1
581 140 1
1683 1 1
1683 2578 1
1683 3590 1
1683 2574 1
3358 3187 1
2118 525 1
2118 1538 1
2118 1544 1
2118 2066 1
2118 522 1
2118 3587 1
2118 13 1
2118 2567 1
2118 2614 1
2118 43 1
2118 3281 1
1681 2104 1
1681 2587 1
1681 2567 1
1681 1599 1
1202 1028 1
1202 3647 1
1202 670 1
2345 2049 1
1201 1034 1
1201 515 1
1201 3085 1
575 2049 1
575 3074 1
575 2129 1
575 2122 1
575 77 1
575 3105 1
575 2582 1
575 3585 1
575 2570 1
575 522 1
575 2060 1
575 2102 1
575 538 1
2199 3074 1
2199 4 1
2199 2740 1
2199 3217 1
621 1030 1
621 2070 1
621 1584 1
621 2080 1
621 2565 1
621 1550 1
2153 523 1
2153 1025 1
2153 2777 1
2153 15 1
2153 3605 1
2153 1084 1
2153 1611 1
2197 513 1
2197 1037 1
2197 880 1
2197 2565 1
3873 1041 1
3872 513 1
3871 3117 1
3870 3093 1
1605 1 1
1605 2571 1
1605 3586 1
1605 516 1
1605 53 1
1605 1679 1
1605 3585 1
1605 3605 1
1605 3146 1
1605 3636 1
1605 2213 1
3869 1549 1
1255 1191 1
1255 3672 1
3205 3075 1
3205 2568 1
3205 3076 1
3205 1057 1
1256 1 1
1256 1594 1
3363 2049 1
140 27 1
140 3086 1
140 2066 1
140 2199 1
801 1554 1
217 1 1
217 1539 1
1639 1544 1
1639 3619 1
1639 2075 1
1639 2055 1
1639 2655 1
1639 2096 1
1639 3089 1
1839 516 1
1257 3074 1
1257 2088 1
1838 3610 1
1782 1025 1
1782 520 1
1837 3088 1
2230 7 1
2230 1025 1
2230 783 1
1332 520 1
736 2200 1
736 3207 1
1331 524 1
1330 2083 1
1028 1 1
1028 2050 1
1028 2049 1
1028 3074 1
1028 2566 1
1028 3073 1
1028 2 1
1028 2571 1
1028 27 1
1028 3586 1
1028 1541 1
1028 2078 1
1028 1538 1
1028 3592 1
1028 14 1
1028 523 1
1028 3608 1
1028 3225 1
1028 1537 1
1028 516 1
1028 3078 1
1028 1052 1
1028 3075 1
1028 3604 1
1028 1564 1
1028 78 1
1028 547 1
1028 518 1
1028 103 1
1028 3087 1
1028 1544 1
1028 1647 1
1028 53 1
1028 1681 1
1028 1041 1
1028 2781 1
1028 41 1
1028 3194 1
1028 537 1
1028 3633 1
1028 1025 1
1028 2054 1
1028 34 1
1028 3588 1
1028 2051 1
1028 2621 1
1028 67 1
1028 3620 1
1028 513 1
1028 2055 1
1028 3094 1
1028 519 1
1028 1121 1
1028 2095 1
1028 3226 1
1028 30 1
1028 2782 1
1028 3585 1
1028 2570 1
1028 522 1
1028 2072 1
1028 3602 1
1028 3101 1
1028 6 1
1028 2079 1
1028 1661 1
1028 1100 1
1028 3596 1
1028 2080 1
1028 2862 1
1028 3590 1
1028 2576 1
1028 2060 1
1028 15 1
1028 2133 1
1028 2171 1
1028 2561 1
1028 1032 1
1028 3587 1
1028 1028 1
1028 3091 1
1028 2565 1
1028 29 1
1028 2271 1
1028 1068 1
1028 2052 1
1028 2575 1
1028 1656 1
1028 3203 1
1028 2787 1
1028 3589 1
1028 1060 1
1028 2674 1
1028 1066 1
1028 1676 1
1028 1640 1
1028 3672 1
1028 2636 1
1028 551 1
1028 538 1
1028 815 1
1028 218 1
1028 135 1
1028 1001 1
1028 1604 1
1028 1591 1
1028 686 1
1028 2257 1
1028 3597 1
1028 1571 1
523 1 1
523 2050 1
523 2049 1
523 2566 1
523 1030 1
523 3073 1
523 1541 1
523 525 1
523 1538 1
523 2572 1
523 516 1
523 526 1
523 3097 1
523 3611 1
523 2622 1
523 2568 1
523 1027 1
523 2064 1
523 2730 1
523 1034 1
523 1561 1
523 517 1
523 1557 1
523 2143 1
523 2123 1
523 3171 1
523 3596 1
523 1583 1
523 1554 1
523 617 1
523 1667 1
523 701 1
523 2561 1
523 1558 1
523 1028 1
523 2567 1
523 1656 1
523 3589 1
523 1047 1
523 538 1
523 1104 1
523 1540 1
523 3250 1
523 3610 1
523 1849 1
2576 1 1
2576 2050 1
2576 3617 1
2576 3586 1
2576 3153 1
2576 523 1
2576 2591 1
2576 3079 1
2576 1537 1
2576 3078 1
2576 2563 1
2576 518 1
2576 2671 1
2576 1026 1
2576 3194 1
2576 1025 1
2576 34 1
2576 2122 1
2576 3646 1
2576 1643 1
2576 513 1
2576 2615 1
2576 1796 1
2576 57 1
2576 2618 1
2576 3594 1
2576 21 1
2576 3607 1
2576 2096 1
2576 2561 1
2576 2565 1
2576 2084 1
2576 3589 1
2576 691 1
2576 2574 1
2576 961 1
2576 9 1
2576 922 1
2576 1178 1
2576 127 1
2576 2713 1
1131 1 1
1131 3079 1
1131 1026 1
1131 2116 1
1131 3082 1
1131 1069 1
1131 611 1
1041 1 1
1041 2 1
1041 3586 1
1041 2585 1
1041 1545 1
1041 1538 1
1041 3121 1
1041 86 1
1041 518 1
1041 3619 1
1041 3081 1
1041 3080 1
1041 2590 1
1041 2578 1
1041 1655 1
1041 1732 1
1041 513 1
1041 3090 1
1041 3598 1
1041 11 1
1041 1561 1
1041 3585 1
1041 2072 1
1041 2056 1
1041 3596 1
1041 1112 1
1041 846 1
1041 2053 1
1041 3111 1
1041 2683 1
1041 1619 1
1041 1554 1
1041 1028 1
1041 2084 1
1041 2575 1
1041 2700 1
1041 1066 1
1041 3092 1
1041 2600 1
3689 523 1
3689 2062 1
3689 1544 1
3689 1539 1
3689 2678 1
3689 1032 1
3689 1550 1
2606 1 1
2606 3084 1
2606 514 1
2606 1543 1
2606 1546 1
2606 32 1
2606 3102 1
2606 1036 1
2606 3099 1
2606 2575 1
2606 1069 1
2606 2063 1
2606 1056 1
2606 2577 1
2606 1171 1
3191 1538 1
3191 2563 1
3191 623 1
3191 1070 1
3191 1068 1
3612 1 1
3612 2050 1
3612 2049 1
3612 3074 1
3612 3073 1
3612 3586 1
3612 3077 1
3612 3669 1
3612 1052 1
3612 1559 1
3612 3087 1
3612 1026 1
3612 16 1
3612 1546 1
3612 2075 1
3612 3094 1
3612 1633 1
3612 3609 1
3612 1664 1
3612 584 1
3612 3117 1
3612 1070 1
3612 2561 1
3612 1032 1
3612 60 1
3612 2575 1
3612 3589 1
3612 3098 1
3612 43 1
3612 2780 1
3612 922 1
3612 1680 1
3612 2281 1
3612 3292 1
2611 2566 1
2611 3608 1
2611 2058 1
2611 2062 1
2611 3161 1
2611 3081 1
2611 2051 1
2611 3076 1
2611 2065 1
2611 1870 1
2611 3585 1
2611 1029 1
2611 3587 1
2611 2604 1
2617 1 1
2617 514 1
2617 3595 1
2617 513 1
2617 1088 1
2617 1243 1
2617 522 1
2617 1578 1
2617 1704 1
2617 2193 1
2617 2583 1
2617 2668 1
2617 2808 1
1121 1 1
1121 1025 1
1121 3104 1
1121 541 1
1121 2574 1
1121 1188 1
1121 1128 1
1121 1065 1
2109 1564 1
2109 1026 1
2109 521 1
2109 543 1
2109 1025 1
2109 1223 1
2109 1553 1
2109 524 1
2109 517 1
2109 2667 1
2109 3587 1
2109 2565 1
2109 2249 1
2685 3073 1
2685 1539 1
2685 2722 1
2685 3622 1
2685 3123 1
3725 3073 1
3725 1026 1
3725 3105 1
3725 1090 1
1044 1 1
1044 2050 1
1044 3074 1
1044 2566 1
1044 1541 1
1044 523 1
1044 3086 1
1044 26 1
1044 1026 1
1044 1539 1
1044 1546 1
1044 2069 1
1044 3611 1
1044 513 1
1044 2568 1
1044 1749 1
1044 65 1
1044 3585 1
1044 517 1
1044 1131 1
1044 3627 1
1044 49 1
1044 771 1
1044 130 1
1044 1560 1
1044 1035 1
1044 1624 1
1044 2561 1
1044 1032 1
1044 3587 1
1044 1028 1
1044 2135 1
1044 115 1
1044 2833 1
1044 4 1
1044 1597 1
1044 3218 1
92 2050 1
92 2591 1
92 2589 1
92 2055 1
92 3622 1
92 2080 1
92 2320 1
92 697 1
1575 3073 1
1575 1542 1
1575 3586 1
1575 1538 1
1575 2082 1
1575 514 1
1575 546 1
1575 2069 1
1575 1094 1
1575 3164 1
1575 3082 1
1575 2562 1
1575 3606 1
1575 2057 1
1575 2277 1
1575 1556 1
1575 1582 1
1575 2053 1
1575 99 1
1575 3095 1
1575 3647 1
3768 1 1
3768 1556 1
3768 3593 1
3680 1 1
3680 2076 1
3680 2568 1
3680 2594 1
3680 2561 1
3680 1032 1
3680 154 1
3680 1601 1
3864 2118 1
3767 1031 1
3767 559 1
3767 2649 1
3766 3585 1
3766 2106 1
3766 3622 1
2156 3119 1
2156 2054 1
2156 1845 1
2156 517 1
2156 2068 1
2156 2224 1
2156 1605 1
2279 518 1
2279 35 1
2165 3 1
2165 2564 1
2165 1062 1
2165 3122 1
2165 3620 1
2165 513 1
3234 2235 1
3234 1164 1
3234 3091 1
2670 1 1
2670 3586 1
2670 1537 1
2670 1126 1
2670 513 1
2670 139 1
2781 3073 1
2781 3658 1
3812 2580 1
3812 2132 1
18 2050 1
18 1538 1
18 1537 1
18 3075 1
18 1670 1
18 518 1
18 3619 1
18 1539 1
18 1548 1
18 16 1
18 1565 1
18 3265 1
18 1569 1
18 1546 1
18 2083 1
18 528 1
18 1562 1
18 3585 1
18 1593 1
18 3594 1
18 1556 1
18 2080 1
18 1620 1
18 3167 1
18 1075 1
18 1673 1
18 2561 1
18 1558 1
18 2052 1
18 2088 1
18 3092 1
18 1054 1
18 953 1
18 967 1
18 1606 1
18 3610 1
18 1181 1
18 670 1
2624 2049 1
2624 2566 1
2624 539 1
2624 2631 1
2624 2562 1
2624 2638 1
2624 1613 1
2624 2561 1
2624 1028 1
2624 3093 1
2624 2088 1
2624 3187 1
1589 1 1
1589 7 1
1589 3087 1
1589 1026 1
1589 1544 1
1589 2073 1
1589 1543 1
1589 517 1
1589 1038 1
1589 1614 1
1589 530 1
1589 2052 1
1589 2625 1
1589 2651 1
3701 1 1
3701 1085 1
3701 3590 1
3701 1558 1
3701 2268 1
3701 1214 1
3124 1 1
3124 2050 1
3124 2572 1
3124 1537 1
3124 3620 1
3124 1059 1
3124 1081 1
3124 3099 1
3124 2165 1
3124 175 1
3124 2052 1
3124 88 1
3124 2614 1
3124 3593 1
3718 1 1
3718 55 1
3718 6 1
3718 568 1
3718 529 1
3353 3076 1
3352 2561 1
3666 1545 1
3666 1026 1
3666 513 1
3666 2055 1
3666 2114 1
3666 898 1
3666 2624 1
3666 2561 1
3666 2567 1
3666 2271 1
2280 1090 1
2280 1677 1
1722 1544 1
1722 3142 1
1722 9 1
3350 3585 1
2654 1 1
2654 3074 1
2654 1544 1
2654 2562 1
2654 3585 1
2654 2196 1
2654 1140 1
1721 3145 1
1721 1583 1
1721 2584 1
1108 2 1
1108 2572 1
1108 2064 1
1108 3585 1
1108 522 1
1108 1556 1
1108 3140 1
1108 1623 1
1108 2630 1
109 2054 1
109 2627 1
109 2065 1
109 2133 1
109 3587 1
109 1601 1
2283 2055 1
2283 2080 1
3349 3585 1
792 517 1
2341 2050 1
2760 859 1
2760 2562 1
1830 1543 1
1325 3074 1
797 1026 1
796 3233 1
794 2570 1
3613 1 1
3613 2082 1
3613 2572 1
3613 516 1
3613 1077 1
3613 2059 1
3613 3279 1
3613 3659 1
3613 1546 1
3613 1566 1
3613 2075 1
3613 3104 1
3613 3664 1
3613 513 1
3613 2696 1
3613 2562 1
3613 3585 1
3613 20 1
3613 3602 1
3613 72 1
3613 3590 1
3613 2561 1
3613 1028 1
3613 2565 1
3613 1057 1
3613 529 1
3613 3267 1
3613 766 1
3613 1540 1
3613 3137 1
3613 261 1
3613 3597 1
3613 1710 1
3647 2566 1
3647 3073 1
3647 7 1
3647 533 1
3647 3108 1
3647 2569 1
3647 1025 1
3647 12 1
3647 3585 1
3647 2706 1
3647 1028 1
3647 3589 1
3647 1065 1
1628 520 1
1628 2134 1
1628 513 1
1628 2056 1
1628 1617 1
1628 2561 1
1628 2623 1
1628 1932 1
3196 3205 1
3196 3080 1
3196 3112 1
3196 2089 1
3196 1571 1
86 2049 1
86 3 1
86 2572 1
86 1537 1
86 2562 1
86 3585 1
86 1619 1
86 4 1
86 2613 1
2844 24 1
1646 3074 1
1646 1025 1
1646 12 1
1646 3585 1
1646 2686 1
1646 4 1
3265 1538 1
3265 2052 1
3158 1 1
3158 38 1
3158 1541 1
3158 3079 1
3158 3097 1
3158 519 1
3158 3662 1
3158 1034 1
3158 3636 1
3715 3074 1
3715 3073 1
3715 3594 1
3715 1549 1
3715 237 1
2765 3107 1
2765 1539 1
2137 3591 1
2137 3073 1
2137 3621 1
2137 1538 1
2137 2569 1
2137 1055 1
2137 2069 1
2137 3106 1
2137 1169 1
1328 1030 1
1327 3602 1
2129 2566 1
2129 3624 1
2129 2077 1
2129 2564 1
2129 3614 1
2129 814 1
2129 2565 1
2129 58 1
2129 3089 1
2129 1603 1
3714 3073 1
3714 3 1
3714 518 1
3714 2684 1
3714 1540 1
3179 111 1
3179 2054 1
3179 2163 1
3179 6 1
3179 1606 1
3179 1303 1
799 3591 1
717 3074 1
717 1544 1
683 1545 1
683 2561 1
683 1547 1
1760 3588 1
1760 2594 1
2150 1541 1
2150 513 1
2150 2057 1
2150 1029 1
2150 3209 1
2150 3091 1
2150 3151 1
268 1537 1
3865 2566 1
3357 1559 1
3793 26 1
3793 3589 1
2110 3073 1
2110 1053 1
2110 27 1
2110 1538 1
2110 2062 1
2110 78 1
2110 1548 1
2110 3633 1
2110 1546 1
2110 2134 1
2110 519 1
2110 11 1
2110 1570 1
3226 2050 1
3226 1030 1
3226 7 1
2225 7 1
2225 3590 1
2225 2620 1
1197 3079 1
1197 923 1
1197 36 1
1763 3591 1
1763 1553 1
798 518 1
1156 2 1
1156 3586 1
1156 1026 1
1156 48 1
1156 1122 1
3273 1537 1
3273 2266 1
2845 1027 1
2344 1085 1
657 3073 1
657 2591 1
657 1608 1
657 2063 1
2342 3597 1
3755 3178 1
3755 2162 1
3755 2602 1
1833 1 1
3225 518 1
3225 2079 1
3225 1051 1
1832 3093 1
1831 532 1
1761 1567 1
1761 2576 1
2853 3656 1
17 1 1
17 2050 1
17 3074 1
17 2566 1
17 2 1
17 2571 1
17 3617 1
17 3586 1
17 3592 1
17 1048 1
17 1537 1
17 1564 1
17 1649 1
17 26 1
17 1026 1
17 1544 1
17 1062 1
17 3097 1
17 1548 1
17 1543 1
17 3588 1
17 513 1
17 32 1
17 12 1
17 2615 1
17 6 1
17 2087 1
17 2667 1
17 1097 1
17 638 1
17 1558 1
17 1039 1
17 3605 1
17 2063 1
17 3260 1
17 2061 1
17 3628 1
17 80 1
17 2334 1
2637 1026 1
2637 3677 1
2637 535 1
2637 2621 1
2637 3585 1
2637 3099 1
2637 2561 1
2637 1547 1
2637 739 1
2637 1260 1
2619 1 1
2619 3586 1
2619 7 1
2619 2585 1
2619 1537 1
2619 516 1
2619 2578 1
2619 2599 1
2619 2679 1
2619 3590 1
2619 2561 1
2619 44 1
2619 172 1
2656 525 1
2656 2564 1
2656 1049 1
2656 555 1
2656 1561 1
2656 1029 1
2656 2575 1
591 3586 1
591 7 1
591 3079 1
591 535 1
591 520 1
591 3585 1
591 1039 1
591 2672 1
591 192 1
591 3130 1
2224 1 1
2224 3087 1
2224 2660 1
2263 2140 1
2263 1540 1
3157 2050 1
3157 3 1
3157 7 1
3157 3081 1
3157 2632 1
3157 3182 1
3157 1035 1
3157 61 1
3157 1571 1
2766 1537 1
2766 1540 1
1710 3074 1
1710 3 1
1710 2104 1
2355 1558 1
1155 1545 1
1155 3621 1
1155 519 1
1155 1039 1
1155 588 1
1846 3 1
1845 2567 1
95 1545 1
95 3078 1
95 1544 1
95 3598 1
95 49 1
95 3210 1
95 1709 1
95 3623 1
1241 1026 1
1241 2064 1
1762 3619 1
1762 3161 1
209 1538 1
209 3618 1
1342 3 1
1341 1091 1
2768 2564 1
2768 1552 1
2707 3585 1
2707 1029 1
2707 2726 1
2707 565 1
3269 2107 1
3269 124 1
810 26 1
3802 539 1
3802 2570 1
3633 3073 1
3633 2585 1
3633 1537 1
3633 2062 1
3633 1543 1
3633 3106 1
3633 517 1
3633 2599 1
3633 3594 1
3633 2100 1
3633 1225 1
3633 198 1
3633 1070 1
3633 1101 1
3633 1540 1
277 1302 1
1690 1 1
1690 3591 1
1690 1544 1
1690 1036 1
1691 1 1
1691 2049 1
1691 2299 1
1691 3076 1
3876 2109 1
3753 3077 1
3753 31 1
3753 3600 1
720 2071 1
720 2583 1
3368 3084 1
2706 1537 1
2706 3599 1
2706 1134 1
2706 3099 1
2852 3074 1
1249 3108 1
1249 532 1
2267 3080 1
2267 2106 1
2851 2168 1
2261 1538 1
2261 35 1
2625 1 1
2625 2566 1
2625 3586 1
2625 523 1
2625 3084 1
2625 41 1
2625 1046 1
2625 42 1
2625 899 1
2625 1118 1
2625 2600 1
2625 1572 1
89 3073 1
89 3 1
89 7 1
89 514 1
89 3604 1
89 1063 1
89 1554 1
89 2201 1
656 1 1
656 2580 1
656 610 1
656 3649 1
1346 3184 1
2201 1 1
2201 3086 1
2201 3119 1
2201 1597 1
3752 3073 1
3752 2706 1
3752 66 1
2152 3073 1
2152 3153 1
2152 2075 1
2152 2568 1
2152 519 1
2152 2586 1
2152 2630 1
1344 2587 1
1343 2064 1
738 2049 1
738 2562 1
3209 2075 1
3209 1038 1
3209 2085 1
3209 3312 1
3282 3599 1
3282 1025 1
812 1541 1
216 1539 1
216 3081 1
811 3101 1
218 1 1
218 3089 1
282 3190 1
3685 3074 1
3685 547 1
3685 1544 1
3685 513 1
3685 3585 1
3685 2053 1
3685 3111 1
2854 1099 1
280 2110 1
279 2100 1
3369 3619 1
2858 3074 1
2857 1624 1
2856 3183 1
2855 121 1
3585 1 1
3585 2050 1
3585 2049 1
3585 3591 1
3585 3074 1
3585 1030 1
3585 2 1
3585 1053 1
3585 2571 1
3585 3586 1
3585 1541 1
3585 3 1
3585 2595 1
3585 7 1
3585 2585 1
3585 1545 1
3585 2103 1
3585 533 1
3585 3173 1
3585 1538 1
3585 3592 1
3585 3077 1
3585 14 1
3585 523 1
3585 3079 1
3585 534 1
3585 209 1
3585 2572 1
3585 3107 1
3585 3084 1
3585 2607 1
3585 1537 1
3585 516 1
3585 3078 1
3585 2062 1
3585 514 1
3585 3109 1
3585 3075 1
3585 526 1
3585 2563 1
3585 518 1
3585 1559 1
3585 3087 1
3585 2601 1
3585 3149 1
3585 2235 1
3585 1026 1
3585 2564 1
3585 2569 1
3585 1544 1
3585 3097 1
3585 3119 1
3585 2073 1
3585 1647 1
3585 2643 1
3585 5 1
3585 1548 1
3585 3653 1
3585 3650 1
3585 1041 1
3585 1076 1
3585 3081 1
3585 16 1
3585 2159 1
3585 2175 1
3585 1025 1
3585 3080 1
3585 34 1
3585 1543 1
3585 28 1
3585 2109 1
3585 3588 1
3585 1049 1
3585 3637 1
3585 1043 1
3585 1648 1
3585 2051 1
3585 2590 1
3585 2593 1
3585 81 1
3585 531 1
3585 3671 1
3585 3618 1
3585 2578 1
3585 2118 1
3585 1033 1
3585 2069 1
3585 1566 1
3585 8 1
3585 3611 1
3585 3164 1
3585 3620 1
3585 1187 1
3585 3632 1
3585 1005 1
3585 68 1
3585 160 1
3585 520 1
3585 3646 1
3585 3667 1
3585 709 1
3585 3664 1
3585 513 1
3585 2055 1
3585 3082 1
3585 39 1
3585 3598 1
3585 519 1
3585 32 1
3585 1046 1
3585 1590 1
3585 3603 1
3585 2562 1
3585 3645 1
3585 2174 1
3585 11 1
3585 532 1
3585 3606 1
3585 2603 1
3585 3118 1
3585 70 1
3585 930 1
3585 1192 1
3585 2057 1
3585 536 1
3585 1561 1
3585 157 1
3585 3083 1
3585 142 1
3585 1203 1
3585 65 1
3585 76 1
3585 515 1
3585 2067 1
3585 2110 1
3585 2582 1
3585 215 1
3585 1555 1
3585 1748 1
3585 1135 1
3585 82 1
3585 1747 1
3585 1042 1
3585 2120 1
3585 2146 1
3585 556 1
3585 1631 1
3585 1629 1
3585 3258 1
3585 1137 1
3585 2570 1
3585 20 1
3585 522 1
3585 1029 1
3585 51 1
3585 2056 1
3585 2594 1
3585 2673 1
3585 1593 1
3585 23 1
3585 591 1
3585 2229 1
3585 1842 1
3585 3594 1
3585 1044 1
3585 1045 1
3585 1556 1
3585 1578 1
3585 1167 1
3585 2053 1
3585 1036 1
3585 1078 1
3585 1588 1
3585 1061 1
3585 1037 1
3585 1081 1
3585 1577 1
3585 1594 1
3585 1146 1
3585 1083 1
3585 3117 1
3585 1097 1
3585 37 1
3585 2158 1
3585 1684 1
3585 728 1
3585 15 1
3585 158 1
3585 3666 1
3585 1625 1
3585 132 1
3585 2561 1
3585 1031 1
3585 3587 1
3585 1547 1
3585 1028 1
3585 13 1
3585 2626 1
3585 3285 1
3585 2567 1
3585 542 1
3585 1628 1
3585 2084 1
3585 2602 1
3585 3639 1
3585 2728 1
3585 2052 1
3585 25 1
3585 2584 1
3585 2575 1
3585 91 1
3585 529 1
3585 3589 1
3585 1060 1
3585 19 1
3585 3155 1
3585 2592 1
3585 2674 1
3585 2672 1
3585 731 1
3585 2112 1
3585 1215 1
3585 977 1
3585 2690 1
3585 3092 1
3585 1054 1
3585 2604 1
3585 3098 1
3585 1576 1
3585 2061 1
3585 47 1
3585 2136 1
3585 2189 1
3585 3144 1
3585 3188 1
3585 1552 1
3585 2102 1
3585 1597 1
3585 1099 1
3585 1598 1
3585 3593 1
3585 1047 1
3585 2579 1
3585 3112 1
3585 1056 1
3585 3208 1
3585 2691 1
3585 783 1
3585 1279 1
3585 1201 1
3585 2649 1
3585 172 1
3585 3146 1
3585 3680 1
3585 204 1
3585 1540 1
3585 3623 1
3585 1604 1
3585 2111 1
3585 1599 1
3585 2204 1
3585 84 1
3585 2717 1
3585 643 1
3585 3597 1
3585 2269 1
3585 3162 1
3585 2128 1
3585 871 1
3585 2670 1
1034 1 1
1034 2050 1
1034 2049 1
1034 3074 1
1034 2571 1
1034 3586 1
1034 1541 1
1034 3 1
1034 7 1
1034 2078 1
1034 2103 1
1034 3592 1
1034 3077 1
1034 14 1
1034 523 1
1034 3079 1
1034 2572 1
1034 1048 1
1034 1136 1
1034 1537 1
1034 514 1
1034 78 1
1034 589 1
1034 1649 1
1034 3615 1
1034 2077 1
1034 1026 1
1034 2564 1
1034 543 1
1034 1642 1
1034 5 1
1034 3081 1
1034 3677 1
1034 183 1
1034 1025 1
1034 1543 1
1034 1648 1
1034 2621 1
1034 2627 1
1034 8 1
1034 2074 1
1034 1654 1
1034 2632 1
1034 2124 1
1034 513 1
1034 3082 1
1034 32 1
1034 3603 1
1034 2066 1
1034 2562 1
1034 1027 1
1034 3606 1
1034 2151 1
1034 2057 1
1034 2615 1
1034 1794 1
1034 59 1
1034 2056 1
1034 1130 1
1034 6 1
1034 2071 1
1034 2743 1
1034 2085 1
1034 3607 1
1034 2097 1
1034 1622 1
1034 1880 1
1034 2561 1
1034 3587 1
1034 2567 1
1034 542 1
1034 2135 1
1034 3246 1
1034 631 1
1034 3589 1
1034 3654 1
1034 99 1
1034 4 1
1034 1056 1
1034 40 1
1034 799 1
1034 2723 1
1034 593 1
1541 1 1
1541 2049 1
1541 3591 1
1541 2566 1
1541 1030 1
1541 3073 1
1541 3586 1
1541 525 1
1541 1538 1
1541 3592 1
1541 3077 1
1541 3079 1
1541 2058 1
1541 1537 1
1541 516 1
1541 3075 1
1541 78 1
1541 518 1
1541 2671 1
1541 26 1
1541 2680 1
1541 3149 1
1541 1026 1
1541 2564 1
1541 521 1
1541 2073 1
1541 3599 1
1541 2070 1
1541 3127 1
1541 1076 1
1541 266 1
1541 1025 1
1541 3080 1
1541 1543 1
1541 3588 1
1541 2051 1
1541 3199 1
1541 3219 1
1541 68 1
1541 2718 1
1541 520 1
1541 2076 1
1541 3664 1
1541 150 1
1541 513 1
1541 2055 1
1541 2568 1
1541 3076 1
1541 31 1
1541 2126 1
1541 3603 1
1541 12 1
1541 10 1
1541 59 1
1541 2582 1
1541 2168 1
1541 1087 1
1541 1737 1
1541 52 1
1541 2072 1
1541 2637 1
1541 3612 1
1541 1130 1
1541 6 1
1541 23 1
1541 1115 1
1541 2285 1
1541 72 1
1541 844 1
1541 2104 1
1541 102 1
1541 784 1
1541 3183 1
1541 1663 1
1541 2667 1
1541 3665 1
1541 202 1
1541 2561 1
1541 1032 1
1541 3587 1
1541 1028 1
1541 2567 1
1541 2081 1
1541 2565 1
1541 1122 1
1541 560 1
1541 1636 1
1541 1069 1
1541 3128 1
1541 3589 1
1541 2145 1
1541 1215 1
1541 2690 1
1541 3672 1
1541 1140 1
1541 665 1
1541 3600 1
1541 2579 1
1541 1600 1
1541 2668 1
1541 1067 1
1541 3198 1
1541 1581 1
1541 3635 1
1541 124 1
1541 3201 1
1541 2191 1
1541 2645 1
1541 2128 1
2596 3073 1
2596 523 1
2596 3100 1
2596 3084 1
2596 3604 1
2596 521 1
2596 5 1
2596 3127 1
2596 1644 1
2596 2849 1
2596 1025 1
2596 2054 1
2596 12 1
2596 2086 1
2596 1113 1
2596 2573 1
2596 2599 1
2596 3290 1
2596 1206 1
2596 651 1
2596 2081 1
2596 3196 1
2596 4 1
2596 1281 1
2596 1149 1
2596 1211 1
2596 723 1
2057 1 1
2057 2050 1
2057 2049 1
2057 3591 1
2057 2566 1
2057 2 1
2057 1542 1
2057 1053 1
2057 3586 1
2057 1541 1
2057 3 1
2057 525 1
2057 533 1
2057 1538 1
2057 3079 1
2057 1537 1
2057 3078 1
2057 514 1
2057 3075 1
2057 170 1
2057 3097 1
2057 2609 1
2057 2589 1
2057 3138 1
2057 537 1
2057 1025 1
2057 3080 1
2057 2054 1
2057 1543 1
2057 2051 1
2057 1546 1
2057 46 1
2057 178 1
2057 2580 1
2057 2075 1
2057 3646 1
2057 2134 1
2057 2076 1
2057 513 1
2057 3603 1
2057 3106 1
2057 3257 1
2057 1027 1
2057 1562 1
2057 1034 1
2057 3243 1
2057 2065 1
2057 65 1
2057 515 1
2057 1739 1
2057 822 1
2057 3585 1
2057 1557 1
2057 3612 1
2057 2071 1
2057 3594 1
2057 2190 1
2057 1061 1
2057 2108 1
2057 3131 1
2057 3642 1
2057 3590 1
2057 1095 1
2057 2171 1
2057 2561 1
2057 1031 1
2057 1547 1
2057 530 1
2057 2567 1
2057 2630 1
2057 2565 1
2057 2084 1
2057 2616 1
2057 529 1
2057 3589 1
2057 1060 1
2057 3655 1
2057 2145 1
2057 2170 1
2057 3630 1
2057 2102 1
2057 1099 1
2057 93 1
2057 3112 1
2057 3208 1
2057 3319 1
2057 1575 1
2057 106 1
2057 927 1
2057 1540 1
2057 540 1
2057 9 1
2057 590 1
1569 1 1
1569 1030 1
1569 1545 1
1569 1538 1
1569 3592 1
1569 1565 1
1569 1025 1
1569 28 1
1569 2745 1
1569 3164 1
1569 3620 1
1569 2057 1
1569 1111 1
1569 1162 1
1569 1100 1
1569 3594 1
1569 3099 1
1569 1554 1
1569 2097 1
1569 1547 1
1569 530 1
1569 629 1
1569 2052 1
1569 2574 1
1569 3676 1
1569 3095 1
1569 1084 1
1569 565 1
1569 3089 1
1569 1200 1
1569 1680 1
3605 2049 1
3605 3591 1
3605 2 1
3605 27 1
3605 514 1
3605 3075 1
3605 26 1
3605 1079 1
3605 2569 1
3605 1539 1
3605 16 1
3605 3588 1
3605 1553 1
3605 2712 1
3605 513 1
3605 2057 1
3605 2277 1
3605 1042 1
3605 3585 1
3605 2071 1
3605 72 1
3605 66 1
3605 1032 1
3605 3587 1
3605 2565 1
3605 91 1
3605 637 1
3605 712 1
3605 64 1
3605 3169 1
3605 2170 1
3605 61 1
3605 1224 1
3605 1047 1
3605 3600 1
3605 2579 1
3605 3112 1
3605 2711 1
1074 1 1
1074 2049 1
1074 1541 1
1074 1537 1
1074 3078 1
1074 3075 1
1074 1062 1
1074 3105 1
1074 1561 1
1074 215 1
1074 841 1
1074 130 1
1074 1031 1
1074 529 1
3593 1 1
3593 2050 1
3593 2049 1
3593 3591 1
3593 3074 1
3593 1030 1
3593 1053 1
3593 3586 1
3593 3 1
3593 2585 1
3593 1545 1
3593 3621 1
3593 3592 1
3593 523 1
3593 3205 1
3593 1537 1
3593 516 1
3593 3078 1
3593 514 1
3593 3075 1
3593 3604 1
3593 2077 1
3593 1539 1
3593 5 1
3593 3122 1
3593 3595 1
3593 544 1
3593 537 1
3593 774 1
3593 2294 1
3593 2054 1
3593 3618 1
3593 1040 1
3593 1033 1
3593 2069 1
3593 24 1
3593 2139 1
3593 2055 1
3593 3090 1
3593 1592 1
3593 2562 1
3593 3106 1
3593 3616 1
3593 97 1
3593 2057 1
3593 3083 1
3593 3660 1
3593 65 1
3593 515 1
3593 3145 1
3593 82 1
3593 3585 1
3593 2221 1
3593 2079 1
3593 3594 1
3593 21 1
3593 1556 1
3593 3156 1
3593 1834 1
3593 1081 1
3593 3182 1
3593 1083 1
3593 1622 1
3593 612 1
3593 186 1
3593 1624 1
3593 1028 1
3593 2567 1
3593 2283 1
3593 2565 1
3593 29 1
3593 2644 1
3593 109 1
3593 1550 1
3593 570 1
3593 3095 1
3593 3672 1
3593 2184 1
3593 2579 1
3593 1155 1
3593 1286 1
3593 3189 1
3593 1149 1
3593 3215 1
3593 2802 1
3593 1058 1
3593 2092 1
3593 3116 1
3593 945 1
3593 3151 1
3593 2861 1
2071 2050 1
2071 3073 1
2071 1537 1
2071 1564 1
2071 518 1
2071 95 1
2071 2070 1
2071 3081 1
2071 1543 1
2071 513 1
2071 3082 1
2071 519 1
2071 2066 1
2071 1027 1
2071 11 1
2071 532 1
2071 2065 1
2071 1087 1
2071 3253 1
2071 3602 1
2071 2123 1
2071 847 1
2071 912 1
2071 15 1
2071 1931 1
2071 3093 1
2071 1039 1
2071 2575 1
2071 3613 1
2071 2574 1
2071 2061 1
2071 3630 1
2071 1188 1
2071 2824 1
2071 1056 1
2071 1607 1
2585 1 1
2585 2050 1
2585 1030 1
2585 3586 1
2585 3 1
2585 7 1
2585 1538 1
2585 523 1
2585 2082 1
2585 3075 1
2585 526 1
2585 518 1
2585 1026 1
2585 2569 1
2585 22 1
2585 2069 1
2585 848 1
2585 3616 1
2585 1027 1
2585 1034 1
2585 2615 1
2585 515 1
2585 2067 1
2585 517 1
2585 591 1
2585 1045 1
2585 2108 1
2585 3665 1
2585 2107 1
2585 542 1
2585 2084 1
2585 2575 1
2585 2102 1
2585 9 1
2585 263 1
115 1 1
115 1537 1
115 557 1
115 3622 1
115 2874 1
115 3210 1
3087 2566 1
3087 2571 1
3087 3586 1
3087 1545 1
3087 2572 1
3087 3078 1
3087 3086 1
3087 518 1
3087 26 1
3087 1548 1
3087 2173 1
3087 3595 1
3087 2210 1
3087 1025 1
3087 2054 1
3087 1543 1
3087 1033 1
3087 3174 1
3087 513 1
3087 31 1
3087 3598 1
3087 1046 1
3087 1027 1
3087 3096 1
3087 1063 1
3087 3602 1
3087 2599 1
3087 1612 1
3087 3594 1
3087 2053 1
3087 2561 1
3087 1051 1
3087 2052 1
3087 3605 1
3087 529 1
3087 1234 1
3087 1054 1
3087 2117 1
3087 2577 1
3087 2711 1
3087 2635 1
3087 2147 1
630 1025 1
630 1218 1
630 513 1
630 1557 1
630 1540 1
1591 1537 1
1591 31 1
1591 1812 1
1591 3088 1
1591 1134 1
1591 2053 1
1591 1092 1
1591 2616 1
1591 1039 1
1591 2166 1
1591 583 1
1591 540 1
1591 1190 1
2227 178 1
2227 2172 1
2227 1216 1
2565 1 1
2565 2050 1
2565 2049 1
2565 3591 1
2565 3074 1
2565 3073 1
2565 2664 1
2565 3586 1
2565 3 1
2565 2595 1
2565 7 1
2565 1545 1
2565 3621 1
2565 1538 1
2565 523 1
2565 3079 1
2565 1537 1
2565 516 1
2565 3078 1
2565 526 1
2565 518 1
2565 2680 1
2565 2692 1
2565 1026 1
2565 1062 1
2565 521 1
2565 2640 1
2565 2059 1
2565 1647 1
2565 1642 1
2565 1565 1
2565 2129 1
2565 2661 1
2565 1025 1
2565 3080 1
2565 3588 1
2565 1049 1
2565 3618 1
2565 2578 1
2565 2617 1
2565 1653 1
2565 2069 1
2565 2074 1
2565 1138 1
2565 2648 1
2565 3104 1
2565 513 1
2565 2055 1
2565 3076 1
2565 31 1
2565 2098 1
2565 1046 1
2565 1027 1
2565 528 1
2565 96 1
2565 2057 1
2565 90 1
2565 75 1
2565 2110 1
2565 1660 1
2565 101 1
2565 3258 1
2565 3585 1
2565 3602 1
2565 1563 1
2565 51 1
2565 553 1
2565 591 1
2565 1580 1
2565 2085 1
2565 1560 1
2565 527 1
2565 2154 1
2565 2186 1
2565 15 1
2565 2093 1
2565 132 1
2565 1673 1
2565 1904 1
2565 1885 1
2565 2561 1
2565 1032 1
2565 1547 1
2565 1028 1
2565 530 1
2565 2081 1
2565 2565 1
2565 2084 1
2565 2728 1
2565 1656 1
2565 3092 1
2565 1626 1
2565 1550 1
2565 61 1
2565 2061 1
2565 665 1
2565 2579 1
2565 2577 1
2565 148 1
2565 1064 1
2565 3636 1
2565 1540 1
2565 2613 1
2565 1581 1
2565 2651 1
2565 9 1
2565 3139 1
2565 850 1
2565 1235 1
1047 1 1
1047 2049 1
1047 3074 1
1047 3073 1
1047 1538 1
1047 2058 1
1047 1537 1
1047 3075 1
1047 2564 1
1047 2569 1
1047 5 1
1047 137 1
1047 1565 1
1047 3664 1
1047 3076 1
1047 2113 1
1047 1121 1
1047 2639 1
1047 3185 1
1047 1162 1
1047 2056 1
1047 2079 1
1047 2085 1
1047 3085 1
1047 1078 1
1047 2686 1
1047 15 1
1047 13 1
1047 530 1
1047 3091 1
1047 2565 1
1047 1039 1
1047 3589 1
1047 3635 1
1047 1761 1
15 1 1
15 3074 1
15 2566 1
15 3586 1
15 2585 1
15 3621 1
15 523 1
15 2619 1
15 1537 1
15 2606 1
15 3097 1
15 1539 1
15 3641 1
15 1025 1
15 1569 1
15 1142 1
15 2590 1
15 2622 1
15 3094 1
15 69 1
15 515 1
15 1042 1
15 1771 1
15 1038 1
15 2573 1
15 1029 1
15 3609 1
15 3612 1
15 3627 1
15 3594 1
15 1580 1
15 3195 1
15 2133 1
15 2561 1
15 2584 1
15 2674 1
15 1194 1
15 2203 1
15 3177 1
15 2307 1
3140 1545 1
3140 534 1
3140 2619 1
3140 518 1
3140 26 1
3140 3090 1
3140 517 1
3140 1028 1
3140 2061 1
3140 3593 1
3140 3261 1
2580 1 1
2580 2050 1
2580 3074 1
2580 2 1
2580 3586 1
2580 3621 1
2580 514 1
2580 103 1
2580 3103 1
2580 2051 1
2580 2578 1
2580 2125 1
2580 3211 1
2580 3082 1
2580 39 1
2580 3076 1
2580 519 1
2580 2066 1
2580 2132 1
2580 528 1
2580 48 1
2580 2057 1
2580 50 1
2580 10 1
2580 2570 1
2580 1156 1
2580 1560 1
2580 1554 1
2580 175 1
2580 1031 1
2580 13 1
2580 3093 1
2580 1628 1
2580 2644 1
2580 3589 1
2580 1599 1
2580 3250 1
2580 3151 1
2635 1538 1
2635 518 1
2635 8 1
2635 513 1
2635 2055 1
2635 3096 1
2635 1663 1
2635 2583 1
2635 3643 1
2635 3638 1
49 1 1
49 2050 1
49 3079 1
49 2082 1
49 3107 1
49 3641 1
49 1025 1
49 3082 1
49 6 1
49 1061 1
49 1070 1
49 1549 1
49 2636 1
49 40 1
2171 533 1
2171 518 1
2171 1046 1
2171 541 1
2171 2586 1
2587 1 1
2587 1542 1
2587 3586 1
2587 2607 1
2587 526 1
2587 1026 1
2587 3119 1
2587 5 1
2587 2589 1
2587 2634 1
2587 2094 1
2587 87 1
2587 2115 1
2587 3284 1
2587 1643 1
2587 2568 1
2587 3598 1
2587 2114 1
2587 1561 1
2587 1029 1
2587 2104 1
2587 1673 1
2587 1882 1
2587 2258 1
2587 3587 1
2587 3093 1
2587 542 1
2587 1057 1
2587 2052 1
2587 2313 1
2587 2092 1
2587 3628 1
2587 1091 1
2587 3597 1
1582 3073 1
1582 1542 1
1582 17 1
1582 537 1
1582 2064 1
1582 3585 1
1582 1029 1
1582 2565 1
1582 3626 1
1582 2574 1
1582 1550 1
1582 2579 1
1582 3112 1
1582 119 1
1582 3116 1
1620 1 1
1620 2585 1
1620 3077 1
1620 1537 1
1620 3078 1
1620 3650 1
1620 2568 1
1620 2234 1
1620 1157 1
3364 1587 1
3624 2566 1
3624 1551 1
3624 1025 1
3624 1653 1
3624 3190 1
3624 3076 1
3624 2057 1
3624 62 1
3624 52 1
3624 1063 1
3624 2573 1
3624 6 1
3624 3117 1
3624 1032 1
3624 1028 1
3624 2052 1
3624 2063 1
3624 1066 1
3624 2243 1
3624 161 1
1712 1537 1
1712 1037 1
1712 2052 1
3167 514 1
3167 2065 1
3167 2582 1
3167 1097 1
3167 1031 1
3167 2567 1
3167 2583 1
2850 1 1
2568 1 1
2568 2050 1
2568 2049 1
2568 3591 1
2568 3074 1
2568 1030 1
2568 3073 1
2568 2 1
2568 1542 1
2568 2664 1
2568 3586 1
2568 3 1
2568 3153 1
2568 1545 1
2568 1538 1
2568 523 1
2568 3100 1
2568 1537 1
2568 514 1
2568 2563 1
2568 1551 1
2568 2601 1
2568 1026 1
2568 2564 1
2568 1544 1
2568 5 1
2568 539 1
2568 3122 1
2568 3127 1
2568 2175 1
2568 22 1
2568 28 1
2568 3588 1
2568 2051 1
2568 2590 1
2568 721 1
2568 67 1
2568 3611 1
2568 2075 1
2568 1139 1
2568 741 1
2568 2714 1
2568 513 1
2568 2083 1
2568 3082 1
2568 519 1
2568 3603 1
2568 2562 1
2568 3118 1
2568 1666 1
2568 2067 1
2568 98 1
2568 3585 1
2568 524 1
2568 2586 1
2568 3101 1
2568 2071 1
2568 1045 1
2568 1830 1
2568 2100 1
2568 3182 1
2568 3131 1
2568 2099 1
2568 1719 1
2568 3590 1
2568 1035 1
2568 1098 1
2568 1622 1
2568 3665 1
2568 2096 1
2568 2561 1
2568 3587 1
2568 1547 1
2568 2081 1
2568 2565 1
2568 2084 1
2568 2616 1
2568 2052 1
2568 3589 1
2568 4 1
2568 2604 1
2568 3672 1
2568 154 1
2568 3593 1
2568 538 1
2568 2600 1
2568 2238 1
2568 58 1
2568 1540 1
2568 1058 1
2568 3635 1
2568 3628 1
2568 921 1
2568 1074 1
2568 3238 1
2568 1832 1
535 1 1
535 3074 1
535 3073 1
535 3 1
535 2585 1
535 1538 1
535 2591 1
535 3608 1
535 2572 1
535 3107 1
535 1026 1
535 2564 1
535 2569 1
535 1546 1
535 513 1
535 96 1
535 1034 1
535 3150 1
535 3614 1
535 3602 1
535 36 1
535 3085 1
535 1586 1
535 2150 1
535 1032 1
535 2565 1
535 1060 1
535 3098 1
535 1280 1
535 779 1
535 2312 1
535 3656 1
535 564 1
535 1888 1
535 2128 1
1049 1541 1
1049 525 1
1049 533 1
1049 1538 1
1049 2572 1
1049 2563 1
1049 3619 1
1049 1565 1
1049 2159 1
1049 544 1
1049 8 1
1049 2198 1
1049 3286 1
1049 1071 1
1049 3090 1
1049 2144 1
1049 2624 1
1049 517 1
1049 2570 1
1049 3602 1
1049 3113 1
1049 3136 1
1049 3111 1
1049 1560 1
1049 1035 1
1049 2561 1
1049 530 1
1049 2567 1
1049 3091 1
1049 2565 1
1049 2583 1
1049 599 1
1049 2284 1
1049 2670 1
3644 1 1
3644 3073 1
3644 117 1
3644 1026 1
3644 1647 1
3644 911 1
3644 3082 1
3644 2064 1
3644 3594 1
3644 527 1
3644 1962 1
3644 2738 1
3644 2316 1
3103 1 1
3103 3073 1
3103 1053 1
3103 2571 1
3103 3586 1
3103 1538 1
3103 3077 1
3103 3078 1
3103 514 1
3103 526 1
3103 1539 1
3103 2643 1
3103 1025 1
3103 2054 1
3103 1543 1
3103 24 1
3103 3105 1
3103 39 1
3103 519 1
3103 32 1
3103 56 1
3103 2561 1
3103 1031 1
3103 3587 1
3103 1028 1
3103 29 1
3103 560 1
3103 151 1
3103 2138 1
3103 2613 1
3103 3160 1
3103 3597 1
2628 1 1
2628 3586 1
2628 3 1
2628 523 1
2628 1543 1
2628 2051 1
2628 2590 1
2628 3076 1
2628 1549 1
2628 3654 1
2628 1552 1
84 2050 1
84 1541 1
84 2091 1
84 1538 1
84 2564 1
84 1681 1
84 1566 1
84 3589 1
84 2597 1
597 3073 1
597 3586 1
597 5 1
597 3601 1
597 513 1
597 10 1
597 3092 1
597 2160 1
597 1211 1
2591 1 1
2591 2 1
2591 2078 1
2591 1538 1
2591 2563 1
2591 1649 1
2591 2077 1
2591 2569 1
2591 544 1
2591 2051 1
2591 2714 1
2591 3082 1
2591 1027 1
2591 532 1
2591 2152 1
2591 792 1
2591 3585 1
2591 1044 1
2591 740 1
2591 1225 1
2591 2561 1
2591 1032 1
2591 3587 1
2591 2626 1
2591 3589 1
2591 19 1
2591 1084 1
2591 35 1
2591 1065 1
2591 159 1
2591 3179 1
2146 3086 1
2146 1544 1
2146 520 1
2146 1029 1
2146 2673 1
2146 2100 1
2146 2575 1
2146 1056 1
38 2050 1
38 3073 1
38 3 1
38 53 1
38 1033 1
38 2568 1
38 3603 1
38 1027 1
38 2582 1
38 3602 1
38 3125 1
38 2176 1
38 1037 1
38 2761 1
38 2576 1
38 1120 1
38 1069 1
38 61 1
38 1540 1
1778 1 1
1778 1067 1
1601 1 1
1601 1030 1
1601 3077 1
1601 2569 1
1601 3103 1
1601 5 1
1601 48 1
1601 2715 1
1601 2682 1
1601 1056 1
1601 3638 1
1601 9 1
271 2577 1
1841 118 1
165 1 1
165 3122 1
165 532 1
538 1 1
538 533 1
538 3592 1
538 3079 1
538 1565 1
538 1025 1
538 22 1
538 1049 1
538 2051 1
538 2617 1
538 2069 1
538 3094 1
538 3603 1
538 2086 1
538 532 1
538 3168 1
538 1034 1
538 515 1
538 1873 1
538 2056 1
538 2176 1
538 1035 1
538 2633 1
538 2561 1
538 1032 1
538 2565 1
538 2052 1
538 3197 1
538 1060 1
538 548 1
538 2161 1
538 154 1
538 2268 1
538 139 1
1615 1 1
1615 3077 1
1615 1073 1
1615 514 1
1615 26 1
1615 3076 1
1615 2562 1
1615 2612 1
1615 2576 1
1615 3589 1
76 1 1
76 2050 1
76 3624 1
76 3588 1
76 1055 1
76 2122 1
76 2573 1
76 2190 1
76 3607 1
76 3610 1
2147 521 1
2147 2581 1
2147 528 1
2147 524 1
2147 517 1
2147 821 1
2147 3151 1
1068 1545 1
1068 1538 1
1068 3084 1
1068 1544 1
1068 1539 1
1068 3081 1
1068 535 1
1068 1546 1
1068 1568 1
1068 2582 1
1068 100 1
1068 1037 1
1068 37 1
1068 2583 1
1068 1047 1
1068 3237 1
2163 3586 1
2163 1025 1
2163 2134 1
2163 3585 1
2163 553 1
2163 3623 1
1840 2055 1
93 1538 1
93 516 1
93 3161 1
93 1037 1
93 2130 1
93 1549 1
93 2102 1
93 1129 1
142 1 1
142 3073 1
142 522 1
142 3231 1
3208 3 1
3208 7 1
3208 1538 1
3208 2610 1
1333 3075 1
2226 1 1
2226 1542 1
2226 2081 1
804 520 1
520 1 1
520 2050 1
520 2049 1
520 3074 1
520 1053 1
520 2571 1
520 3586 1
520 7 1
520 2078 1
520 523 1
520 3079 1
520 3100 1
520 516 1
520 3109 1
520 3086 1
520 772 1
520 1026 1
520 2564 1
520 2569 1
520 1544 1
520 1539 1
520 2581 1
520 2653 1
520 5 1
520 539 1
520 1041 1
520 3081 1
520 2589 1
520 1025 1
520 3588 1
520 2051 1
520 615 1
520 1546 1
520 2578 1
520 1653 1
520 8 1
520 3611 1
520 3219 1
520 2124 1
520 513 1
520 2562 1
520 12 1
520 1027 1
520 532 1
520 1102 1
520 156 1
520 515 1
520 2702 1
520 2678 1
520 18 1
520 524 1
520 517 1
520 2105 1
520 2599 1
520 2090 1
520 21 1
520 1167 1
520 3235 1
520 2797 1
520 1036 1
520 1616 1
520 1092 1
520 2165 1
520 1191 1
520 2721 1
520 2703 1
520 2264 1
520 2561 1
520 1032 1
520 1028 1
520 13 1
520 2081 1
520 2785 1
520 1057 1
520 629 1
520 3605 1
520 3197 1
520 3128 1
520 3589 1
520 19 1
520 3095 1
520 151 1
520 3112 1
520 1056 1
520 2245 1
520 2322 1
520 1607 1
520 952 1
520 1540 1
520 2613 1
520 3635 1
520 3628 1
520 3252 1
520 3186 1
520 1717 1
520 1571 1
3611 1 1
3611 2050 1
3611 2049 1
3611 2 1
3611 3586 1
3611 525 1
3611 3592 1
3611 1062 1
3611 2140 1
3611 2589 1
3611 1025 1
3611 2054 1
3611 2593 1
3611 1546 1
3611 3601 1
3611 3076 1
3611 519 1
3611 3106 1
3611 2057 1
3611 515 1
3611 2776 1
3611 522 1
3611 2586 1
3611 1092 1
3611 2561 1
3611 1547 1
3611 2135 1
3611 3605 1
3611 25 1
3611 3626 1
3611 3191 1
3611 44 1
3611 3114 1
3611 3610 1
3611 1827 1
2086 1 1
2086 2050 1
2086 3591 1
2086 3074 1
2086 3073 1
2086 3586 1
2086 2585 1
2086 1538 1
2086 3100 1
2086 2568 1
2086 18 1
2086 1583 1
2086 3590 1
2086 1554 1
2086 1731 1
2086 2240 1
2086 2567 1
2086 29 1
2086 3639 1
2086 3589 1
2086 2574 1
2086 2289 1
2086 3215 1
2086 2157 1
1098 2564 1
1098 1025 1
1098 1546 1
1098 1566 1
1098 3106 1
1098 532 1
1098 1555 1
1098 3585 1
1098 2053 1
1098 3587 1
1098 1066 1
2072 1 1
2072 1030 1
2072 3586 1
2072 7 1
2072 533 1
2072 3592 1
2072 3079 1
2072 1052 1
2072 1559 1
2072 521 1
2072 1546 1
2072 87 1
2072 1033 1
2072 210 1
2072 2756 1
2072 2055 1
2072 31 1
2072 12 1
2072 3259 1
2072 3585 1
2072 517 1
2072 2720 1
2072 2561 1
2072 1031 1
2072 1547 1
2072 1028 1
2072 3091 1
2072 29 1
2072 2660 1
2072 1066 1
2072 1678 1
2072 1598 1
2072 2577 1
2072 588 1
2072 3114 1
2072 1067 1
3175 3074 1
3175 3205 1
3175 3075 1
3175 513 1
3175 1035 1
3175 3597 1
3686 1 1
3686 41 1
3686 46 1
3686 515 1
3686 2084 1
3686 29 1
3686 3130 1
1689 3591 1
1689 3076 1
1689 3603 1
1689 2130 1
1572 1 1
1572 3073 1
1572 2595 1
1572 7 1
1572 3077 1
1572 523 1
1572 1136 1
1572 526 1
1572 2601 1
1572 1026 1
1572 1539 1
1572 3138 1
1572 1025 1
1572 1043 1
1572 3632 1
1572 32 1
1572 3606 1
1572 557 1
1572 1690 1
1572 3609 1
1572 1044 1
1572 1167 1
1572 1554 1
1572 3343 1
1572 2567 1
1572 60 1
1572 2583 1
1572 1678 1
1078 3073 1
1078 1538 1
1078 3615 1
1078 2070 1
1078 3588 1
1078 1592 1
1078 3616 1
1078 1032 1
1078 1549 1
1078 3613 1
1078 2620 1
1078 35 1
1078 2645 1
39 1 1
39 2050 1
39 27 1
39 2585 1
39 1545 1
39 2563 1
39 46 1
39 2654 1
39 3678 1
39 50 1
39 3612 1
39 21 1
39 1688 1
39 2131 1
39 3091 1
39 3655 1
39 2289 1
39 3610 1
1634 523 1
1634 2563 1
1634 3091 1
1634 2583 1
1634 1054 1
1634 952 1
1634 877 1
1598 3591 1
1598 520 1
1598 2580 1
1598 1103 1
1598 515 1
1598 541 1
1598 3156 1
1598 1558 1
1598 1039 1
1598 1693 1
1598 3634 1
1598 2181 1
716 1 1
716 1546 1
3242 3599 1
3242 513 1
3242 2081 1
1754 2582 1
1754 2178 1
1559 1 1
1559 1542 1
1559 3586 1
1559 3173 1
1559 1538 1
1559 3087 1
1559 772 1
1559 1026 1
1559 2564 1
1559 2569 1
1559 1539 1
1559 2634 1
1559 1025 1
1559 1043 1
1559 3671 1
1559 2617 1
1559 1566 1
1559 1553 1
1559 1096 1
1559 513 1
1559 55 1
1559 2065 1
1559 824 1
1559 524 1
1559 2570 1
1559 20 1
1559 2056 1
1559 1667 1
1559 1028 1
1559 2052 1
1559 1639 1
1559 3228 1
1559 1596 1
1559 3112 1
1559 1589 1
1559 3124 1
3133 1537 1
3133 2580 1
3133 513 1
3133 3076 1
3133 519 1
3133 10 1
3133 1038 1
3133 3590 1
3133 1547 1
3133 1184 1
3133 3589 1
3133 2265 1
1116 2566 1
1116 1567 1
1116 3076 1
1116 3118 1
1116 1034 1
1116 2065 1
1116 2060 1
1116 1051 1
1116 1039 1
3702 3 1
3702 1538 1
3702 1644 1
3702 528 1
3702 2561 1
3702 44 1
1613 1 1
1613 2050 1
1613 1538 1
1613 1026 1
1613 537 1
1613 2327 1
1613 528 1
1613 3651 1
1613 530 1
1613 2584 1
1729 546 1
1729 1086 1
1729 2814 1
3244 3073 1
3244 2596 1
3244 2561 1
604 3107 1
604 3080 1
604 3120 1
604 910 1
604 517 1
604 542 1
604 3589 1
604 61 1
2762 2050 1
2762 19 1
2680 1025 1
2680 513 1
2680 3622 1
2680 2587 1
2680 3593 1
272 1027 1
665 1 1
665 534 1
665 5 1
665 2051 1
1060 1 1
1060 2050 1
1060 3073 1
1060 1537 1
1060 3075 1
1060 2745 1
1060 2121 1
1060 2562 1
1060 2639 1
1060 2199 1
1060 2153 1
1060 215 1
1060 1148 1
1060 2194 1
1060 3596 1
1060 3231 1
1060 2561 1
1060 13 1
1060 1060 1
1060 2112 1
1060 1099 1
1060 184 1
1060 2691 1
1060 1923 1
1060 1766 1
1060 1740 1
554 1542 1
554 27 1
554 3103 1
554 531 1
554 513 1
554 3094 1
554 31 1
554 1027 1
554 2638 1
554 30 1
554 6 1
554 1092 1
554 2561 1
554 2061 1
554 1084 1
554 2675 1
554 3089 1
2108 1 1
2108 2050 1
2108 3074 1
2108 3586 1
2108 2054 1
2108 3076 1
2108 532 1
2108 97 1
2108 3596 1
2108 2053 1
2108 1066 1
2108 3116 1
2108 2331 1
202 3073 1
202 3617 1
3641 2049 1
3641 3 1
3641 2569 1
3641 3588 1
3641 2137 1
3641 2580 1
3641 2568 1
3641 1568 1
3641 3088 1
3641 1145 1
3641 545 1
3641 2584 1
3641 3668 1
3641 1696 1
106 1569 1
106 2627 1
106 62 1
106 1228 1
106 1272 1
106 3597 1
2240 3585 1
2240 2072 1
2240 1029 1
1842 525 1
72 1 1
72 5 1
72 2051 1
72 1665 1
72 3625 1
72 2611 1
72 2765 1
72 1174 1
72 47 1
72 2813 1
72 2281 1
1692 1574 1
1692 3082 1
1692 3585 1
1692 2052 1
2265 2050 1
2265 1086 1
2266 3085 1
2266 2063 1
2353 1638 1
1214 1 1
1214 3586 1
1214 1025 1
2352 3585 1
2644 526 1
2644 2656 1
2644 1544 1
2644 2059 1
2644 10 1
2644 1556 1
2644 3123 1
2644 2574 1
2644 1550 1
2351 1080 1
2236 14 1
2236 3633 1
2236 2735 1
2350 2561 1
2669 2049 1
2669 1542 1
2669 2571 1
2669 513 1
2669 3091 1
2669 3112 1
2771 1542 1
2771 1263 1
1726 518 1
1726 2569 1
1726 1114 1
1179 525 1
1179 1025 1
1179 524 1
1179 19 1
3799 1 1
3799 1046 1
521 1 1
521 2050 1
521 3591 1
521 38 1
521 3073 1
521 1053 1
521 3617 1
521 3586 1
521 3 1
521 7 1
521 2078 1
521 1538 1
521 3592 1
521 3077 1
521 14 1
521 3608 1
521 2082 1
521 3100 1
521 1537 1
521 3078 1
521 3143 1
521 26 1
521 2564 1
521 2588 1
521 521 1
521 3097 1
521 2059 1
521 3599 1
521 3122 1
521 3081 1
521 16 1
521 1565 1
521 2054 1
521 3588 1
521 2051 1
521 2799 1
521 3631 1
521 2122 1
521 3611 1
521 520 1
521 1553 1
521 2076 1
521 3104 1
521 513 1
521 2055 1
521 3076 1
521 1046 1
521 1121 1
521 2612 1
521 2151 1
521 3150 1
521 3088 1
521 1555 1
521 138 1
521 52 1
521 3585 1
521 2570 1
521 541 1
521 522 1
521 2573 1
521 3602 1
521 3135 1
521 272 1
521 2587 1
521 1035 1
521 719 1
521 1623 1
521 1031 1
521 1558 1
521 3587 1
521 2068 1
521 1028 1
521 3093 1
521 2567 1
521 2565 1
521 2602 1
521 2052 1
521 1549 1
521 3172 1
521 3155 1
521 2592 1
521 115 1
521 3593 1
521 3600 1
521 538 1
521 44 1
521 3658 1
521 2649 1
521 9 1
521 1589 1
521 2717 1
521 1572 1
521 876 1
540 2050 1
540 2049 1
540 2 1
540 2571 1
540 3586 1
540 1538 1
540 3079 1
540 2572 1
540 2235 1
540 1026 1
540 1539 1
540 1565 1
540 3595 1
540 2051 1
540 1567 1
540 2121 1
540 513 1
540 3082 1
540 2603 1
540 30 1
540 3585 1
540 2594 1
540 36 1
540 1560 1
540 1714 1
540 604 1
540 1158 1
540 2567 1
540 2565 1
540 4 1
540 3144 1
540 1601 1
540 592 1
1051 1 1
1051 2050 1
1051 3591 1
1051 3073 1
1051 2 1
1051 2571 1
1051 1545 1
1051 1538 1
1051 1073 1
1051 2070 1
1051 1025 1
1051 1543 1
1051 2051 1
1051 2590 1
1051 1040 1
1051 1553 1
1051 3082 1
1051 2098 1
1051 2562 1
1051 2064 1
1051 930 1
1051 3585 1
1051 2072 1
1051 2056 1
1051 752 1
1051 2130 1
1051 1625 1
1051 2567 1
1051 1060 1
1051 19 1
1051 779 1
1051 2279 1
1051 554 1
36 2050 1
36 3 1
36 3079 1
36 514 1
36 1052 1
36 2185 1
36 3115 1
36 2568 1
36 3076 1
36 2066 1
36 1584 1
36 1078 1
36 3590 1
36 187 1
36 1120 1
36 2561 1
36 3587 1
36 1028 1
36 4 1
36 3112 1
36 1056 1
36 218 1
2581 1 1
2581 2049 1
2581 3074 1
2581 1030 1
2581 3073 1
2581 2571 1
2581 3 1
2581 3079 1
2581 1537 1
2581 1026 1
2581 2569 1
2581 3097 1
2581 3599 1
2581 53 1
2581 956 1
2581 1543 1
2581 3588 1
2581 513 1
2581 3082 1
2581 3088 1
2581 522 1
2581 6 1
2581 3113 1
2581 3590 1
2581 1978 1
2581 1032 1
2581 2131 1
2581 1184 1
2581 2602 1
2581 2088 1
2581 1550 1
2581 47 1
2581 610 1
2581 2691 1
2581 1575 1
2581 106 1
2581 875 1
2126 1 1
2126 3592 1
2126 1539 1
2126 2589 1
2126 2051 1
2126 531 1
2126 1096 1
2126 1087 1
2126 1070 1
2126 1051 1
71 1 1
71 3074 1
71 1538 1
71 513 1
71 3102 1
71 90 1
71 2583 1
71 3589 1
71 2574 1
71 94 1
71 1308 1
2673 523 1
2673 1025 1
2673 2053 1
2673 3131 1
2673 671 1
1042 1 1
1042 533 1
1042 3077 1
1042 3079 1
1042 1073 1
1042 3075 1
1042 1077 1
1042 2564 1
1042 2569 1
1042 16 1
1042 1025 1
1042 3080 1
1042 2069 1
1042 3076 1
1042 2144 1
1042 3133 1
1042 3118 1
1042 92 1
1042 2598 1
1042 1244 1
1042 1555 1
1042 82 1
1042 3585 1
1042 522 1
1042 3171 1
1042 2237 1
1042 1159 1
1042 1554 1
1042 2561 1
1042 2052 1
1042 2584 1
1042 529 1
1042 3203 1
1042 2161 1
1042 2217 1
1042 1128 1
1042 1014 1
1042 1227 1
2097 2049 1
2097 3592 1
2097 2572 1
2097 2607 1
2097 1621 1
2097 3615 1
2097 1026 1
2097 2054 1
2097 3083 1
2097 2199 1
2097 3171 1
2097 1036 1
2097 1082 1
2097 1031 1
2097 3593 1
3168 1 1
3168 3074 1
3168 3079 1
3168 537 1
3168 1568 1
3168 3085 1
3168 192 1
2148 26 1
2148 2653 1
2148 1213 1
2148 57 1
2148 3587 1
2148 2660 1
2148 35 1
3659 2049 1
3659 1541 1
3659 1543 1
3659 1072 1
3659 1561 1
3659 3145 1
3659 3585 1
3659 25 1
3659 1637 1
3659 2195 1
3659 2138 1
3707 2049 1
3707 1025 1
3707 2582 1
3707 2106 1
3707 3607 1
177 1026 1
177 517 1
177 3158 1
805 1064 1
1036 1 1
1036 2050 1
1036 2049 1
1036 3074 1
1036 3586 1
1036 1537 1
1036 3078 1
1036 1026 1
1036 2581 1
1036 2070 1
1036 3595 1
1036 1268 1
1036 1025 1
1036 3080 1
1036 22 1
1036 3588 1
1036 1569 1
1036 2593 1
1036 8 1
1036 2055 1
1036 39 1
1036 3076 1
1036 3598 1
1036 12 1
1036 2612 1
1036 1176 1
1036 515 1
1036 10 1
1036 2067 1
1036 3622 1
1036 3141 1
1036 899 1
1036 2158 1
1036 1966 1
1036 1558 1
1036 2565 1
1036 29 1
1036 19 1
1036 3155 1
1036 548 1
1036 732 1
1036 2600 1
1036 1128 1
1036 1058 1
2615 1 1
2615 1542 1
2615 1537 1
2615 1055 1
2615 513 1
2615 3612 1
2615 2053 1
2615 3589 1
2615 2061 1
2615 2657 1
2615 9 1
2615 1571 1
2615 2336 1
1109 1538 1
1109 22 1
1109 513 1
1109 1027 1
1109 532 1
1109 522 1
1109 1100 1
1109 2614 1
1109 2286 1
1338 522 1
2132 2050 1
2132 1048 1
2132 2077 1
2132 2580 1
2132 3076 1
2132 2285 1
2132 530 1
2132 1166 1
2132 2629 1
1653 1544 1
1653 1027 1
1653 3585 1
1653 6 1
1653 36 1
3180 1030 1
3180 966 1
3180 1025 1
3180 1863 1
3180 3593 1
3180 2157 1
3236 3080 1
3236 1063 1
3236 2567 1
2631 1 1
2631 1025 1
2631 2051 1
2631 513 1
2631 1027 1
2631 1029 1
2631 3602 1
2631 3590 1
2631 3605 1
2631 43 1
2631 1074 1
1245 2569 1
1245 131 1
2172 3084 1
2172 526 1
2172 15 1
2172 2584 1
2172 126 1
1672 1055 1
1672 2718 1
1672 6 1
1672 3129 1
2739 2563 1
2739 527 1
2739 3630 1
2082 1 1
2082 2049 1
2082 3586 1
2082 2585 1
2082 3107 1
2082 1048 1
2082 518 1
2082 1559 1
2082 521 1
2082 2589 1
2082 544 1
2082 2185 1
2082 67 1
2082 3234 1
2082 2696 1
2082 1027 1
2082 2057 1
2082 3134 1
2082 2080 1
2082 1560 1
2082 2565 1
2082 3197 1
2082 2636 1
2082 1552 1
2082 2629 1
2082 2605 1
2082 43 1
2082 1258 1
2082 2157 1
2082 2089 1
1583 2049 1
1583 3073 1
1583 2571 1
1583 2591 1
1583 2077 1
1583 513 1
1583 2066 1
1583 3096 1
1583 3627 1
1583 3590 1
1583 37 1
1583 1060 1
1583 2697 1
1583 3092 1
1583 2642 1
3660 2 1
3660 1538 1
3660 1537 1
3660 1025 1
3660 1027 1
3660 536 1
3660 2598 1
3660 3231 1
3660 88 1
3660 716 1
3660 149 1
1242 1633 1
1242 3160 1
2139 1026 1
2139 751 1
2139 2109 1
2139 636 1
2139 116 1
2139 513 1
2139 2067 1
2139 2088 1
648 3074 1
648 3077 1
648 81 1
648 1028 1
1167 3 1
1167 1551 1
1167 1025 1
1167 1047 1
181 1 1
181 2050 1
181 2562 1
1626 3592 1
1626 2564 1
1626 3080 1
1626 3178 1
1626 74 1
1626 15 1
1626 2561 1
1626 3587 1
1210 514 1
1210 3590 1
1210 3201 1
3239 3279 1
3239 520 1
3239 2052 1
2237 3074 1
2237 3073 1
2237 2052 1
1334 2056 1
207 2569 1
207 3643 1
1101 1136 1
1101 516 1
1101 1621 1
1101 16 1
1101 2054 1
1101 2098 1
1101 3663 1
1101 2561 1
1101 530 1
1101 2645 1
645 518 1
645 3588 1
645 2561 1
645 1032 1
2675 2 1
2675 3170 1
2675 1145 1
2675 3589 1
2675 1550 1
644 1 1
644 3076 1
644 30 1
644 2231 1
2767 3073 1
2767 513 1
2264 516 1
2264 3611 1
808 2590 1
3771 2595 1
3771 1564 1
3771 2702 1
1240 513 1
1240 2201 1
2843 2049 1
548 1 1
548 2050 1
548 2049 1
548 3073 1
548 3 1
548 1026 1
548 2070 1
548 1025 1
548 2593 1
548 3082 1
548 2610 1
548 2086 1
548 2277 1
548 3253 1
548 524 1
548 1029 1
548 2586 1
548 2053 1
548 2587 1
548 3091 1
548 2806 1
548 4 1
548 1550 1
548 2620 1
548 3236 1
548 799 1
548 1572 1
62 3073 1
62 534 1
62 2058 1
62 520 1
62 1042 1
62 517 1
62 20 1
62 2646 1
62 1035 1
62 1086 1
62 2145 1
62 44 1
632 3592 1
632 3078 1
632 893 1
632 519 1
632 2561 1
2738 2571 1
2738 2054 1
2738 1027 1
2134 3073 1
2134 1542 1
2134 3588 1
2134 622 1
2134 2198 1
2134 72 1
2134 2715 1
2134 581 1
2134 2577 1
1134 3591 1
1134 3614 1
1134 2215 1
1134 3117 1
1134 1090 1
1134 2620 1
3172 3586 1
3172 1538 1
3172 521 1
3172 1025 1
3172 2075 1
3172 3083 1
3172 104 1
3339 1540 1
3682 2571 1
3682 3586 1
3682 26 1
3682 521 1
3682 1025 1
3682 1033 1
3682 1036 1
3682 2203 1
1654 1025 1
1654 3588 1
1654 1108 1
1654 1194 1
1654 1920 1
179 1 1
179 3586 1
179 2569 1
180 2132 1
180 4 1
180 1540 1
1238 1 1
1238 60 1
1728 3608 1
1728 1565 1
1728 2183 1
3338 3594 1
2831 1 1
1089 1542 1
1089 3 1
1089 518 1
1089 1025 1
1089 1141 1
1089 39 1
1089 2596 1
1089 3645 1
1089 3147 1
1089 542 1
1089 3155 1
1089 3593 1
3206 3586 1
3206 1026 1
3206 2055 1
3206 1063 1
2269 3592 1
2269 3595 1
1766 2049 1
1766 3105 1
2677 1544 1
2677 2570 1
2677 1612 1
2677 19 1
2677 94 1
3773 3588 1
3773 3614 1
3773 968 1
1171 1538 1
1171 2070 1
1171 520 1
1171 2788 1
215 3074 1
215 2580 1
2328 1025 1
1815 3608 1
1314 1538 1
1097 2566 1
1097 1026 1
1097 3080 1
1097 2074 1
1097 1138 1
1097 2055 1
1097 10 1
1097 1243 1
1097 2087 1
1097 1091 1
1097 676 1
1725 2051 1
1725 1034 1
1725 6 1
1149 1537 1
1149 513 1
1149 817 1
1149 3589 1
1149 965 1
1765 1545 1
1765 1038 1
1764 513 1
1764 2067 1
213 3611 1
213 517 1
655 38 1
655 3586 1
655 514 1
655 2588 1
2829 1626 1
1144 2572 1
1144 3084 1
1144 513 1
1144 2618 1
1144 1169 1
1144 2172 1
722 3591 1
722 543 1
3845 1552 1
3337 2054 1
2830 1025 1
1542 1 1
1542 3591 1
1542 1030 1
1542 3073 1
1542 1542 1
1542 2571 1
1542 1541 1
1542 7 1
1542 2585 1
1542 1545 1
1542 2103 1
1542 1538 1
1542 3077 1
1542 523 1
1542 2591 1
1542 2572 1
1542 1537 1
1542 1085 1
1542 3075 1
1542 2563 1
1542 518 1
1542 26 1
1542 3087 1
1542 1026 1
1542 1544 1
1542 1062 1
1542 521 1
1542 2059 1
1542 3599 1
1542 5 1
1542 17 1
1542 1683 1
1542 1076 1
1542 2589 1
1542 1671 1
1542 1543 1
1542 2621 1
1542 1546 1
1542 531 1
1542 3631 1
1542 1033 1
1542 1106 1
1542 1198 1
1542 1096 1
1542 2055 1
1542 2568 1
1542 519 1
1542 3603 1
1542 2734 1
1542 1121 1
1542 2562 1
1542 55 1
1542 1027 1
1542 532 1
1542 528 1
1542 2057 1
1542 3096 1
1542 536 1
1542 1102 1
1542 1561 1
1542 3083 1
1542 2067 1
1542 2598 1
1542 1137 1
1542 3585 1
1542 2573 1
1542 57 1
1542 1593 1
1542 3141 1
1542 1150 1
1542 3136 1
1542 2085 1
1542 1560 1
1542 1037 1
1542 2150 1
1542 3131 1
1542 198 1
1542 702 1
1542 1174 1
1542 2561 1
1542 1032 1
1542 13 1
1542 3093 1
1542 2567 1
1542 3091 1
1542 2565 1
1542 3193 1
1542 1942 1
1542 2575 1
1542 1549 1
1542 2738 1
1542 1093 1
1542 3626 1
1542 4 1
1542 1550 1
1542 2136 1
1542 94 1
1542 2101 1
1542 1056 1
1542 40 1
1542 2625 1
1542 2847 1
1542 806 1
1542 1058 1
1542 1074 1
1542 3116 1
1542 2737 1
2063 1 1
2063 2050 1
2063 2049 1
2063 3074 1
2063 3073 1
2063 1541 1
2063 1545 1
2063 514 1
2063 3075 1
2063 2569 1
2063 3119 1
2063 3641 1
2063 3081 1
2063 183 1
2063 22 1
2063 3273 1
2063 3620 1
2063 1657 1
2063 2134 1
2063 2139 1
2063 3076 1
2063 3606 1
2063 2710 1
2063 3240 1
2063 3126 1
2063 2223 1
2063 3585 1
2063 6 1
2063 3123 1
2063 2659 1
2063 1694 1
2063 2096 1
2063 2561 1
2063 1547 1
2063 673 1
2063 1640 1
2063 2574 1
2063 3256 1
2063 2629 1
2063 3114 1
2063 3656 1
2063 2608 1
1550 1 1
1550 2049 1
1550 3074 1
1550 3073 1
1550 2 1
1550 27 1
1550 3586 1
1550 534 1
1550 2572 1
1550 2062 1
1550 3108 1
1550 518 1
1550 2569 1
1550 3103 1
1550 521 1
1550 543 1
1550 5 1
1550 2054 1
1550 2094 1
1550 1655 1
1550 2075 1
1550 513 1
1550 3102 1
1550 3662 1
1550 2057 1
1550 1034 1
1550 30 1
1550 2782 1
1550 2586 1
1550 3609 1
1550 840 1
1550 1132 1
1550 1309 1
1550 2084 1
1550 1632 1
1550 2728 1
1550 3172 1
1550 3196 1
1550 2112 1
1550 1093 1
1550 3187 1
1550 1118 1
1550 821 1
1550 1178 1
3160 1 1
3160 3074 1
3160 1537 1
3160 1573 1
3160 520 1
3160 513 1
3160 2151 1
3160 2274 1
3160 1617 1
2592 1030 1
2592 2 1
2592 2571 1
2592 3 1
2592 14 1
2592 3107 1
2592 1537 1
2592 3143 1
2592 41 1
2592 3595 1
2592 774 1
2592 2562 1
2592 2612 1
2592 2638 1
2592 1665 1
2592 515 1
2592 2153 1
2592 1555 1
2592 947 1
2592 33 1
2592 1587 1
2592 102 1
2592 2703 1
2592 3167 1
2592 2561 1
2592 3091 1
2592 2565 1
2592 2052 1
2592 1080 1
2592 1104 1
2592 790 1
2116 2049 1
2116 2566 1
2116 1538 1
2116 2563 1
2116 2606 1
2116 518 1
2116 1046 1
2116 3168 1
2116 3134 1
2116 3241 1
2116 3092 1
2116 3597 1
2605 1 1
2605 2049 1
2605 3077 1
2605 539 1
2605 3080 1
2605 531 1
2605 1033 1
2605 3202 1
2605 3585 1
2605 2586 1
2605 3625 1
2605 3673 1
2605 2561 1
2605 3095 1
2605 2577 1
3241 2059 1
3241 1540 1
3241 2227 1
3620 1 1
3620 2049 1
3620 3074 1
3620 2 1
3620 2078 1
3620 523 1
3620 514 1
3620 526 1
3620 2588 1
3620 34 1
3620 2051 1
3620 2075 1
3620 513 1
3620 3076 1
3620 519 1
3620 1046 1
3620 2562 1
3620 2067 1
3620 1137 1
3620 3612 1
3620 3340 1
3620 2701 1
3620 529 1
3620 2063 1
3620 2574 1
3620 2604 1
3620 1065 1
3620 3647 1
3620 3160 1
590 1 1
590 3074 1
590 1030 1
590 7 1
590 3078 1
590 2569 1
590 6 1
590 1620 1
590 529 1
590 2117 1
3150 1 1
3150 2050 1
3150 523 1
3150 1026 1
3150 2562 1
3150 98 1
3150 1110 1
3150 2561 1
3150 19 1
3150 3151 1
3243 1 1
3243 2575 1
3243 3649 1
2632 3084 1
2632 2062 1
2632 2563 1
2632 543 1
2632 1539 1
2632 1025 1
2632 2054 1
2632 160 1
2632 3609 1
2632 3093 1
2632 104 1
137 3586 1
137 3657 1
137 2646 1
137 1095 1
2239 3173 1
2239 3096 1
2239 2561 1
1237 1 1
1237 2563 1
3097 1 1
3097 2050 1
3097 3617 1
3097 1538 1
3097 516 1
3097 1670 1
3097 2563 1
3097 2692 1
3097 1026 1
3097 1565 1
3097 2210 1
3097 1025 1
3097 1142 1
3097 3601 1
3097 1566 1
3097 1643 1
3097 2057 1
3097 2582 1
3097 1029 1
3097 1557 1
3097 3612 1
3097 1044 1
3097 33 1
3097 2053 1
3097 920 1
3097 1051 1
3097 630 1
3097 1117 1
3097 3254 1
3097 4 1
3097 2625 1
3097 1540 1
3097 896 1
3097 84 1
3097 2746 1
2101 1 1
2101 2585 1
2101 1537 1
2101 26 1
2101 1026 1
2101 521 1
2101 3599 1
2101 2075 1
2101 532 1
2101 52 1
2101 1869 1
2101 2056 1
2101 553 1
2101 1182 1
3703 1 1
3703 2049 1
3703 3588 1
3703 42 1
3703 1660 1
3703 3590 1
715 1537 1
715 1540 1
1609 2563 1
1609 1026 1
1609 2564 1
1609 1568 1
1609 3120 1
1609 1820 1
1609 2080 1
1609 3131 1
1609 3590 1
1609 2561 1
1609 1540 1
120 2067 1
120 45 1
120 2565 1
120 2574 1
120 258 1
121 1 1
121 2050 1
121 3216 1
121 705 1
121 3292 1
714 3616 1
714 1051 1
2123 1 1
2123 1541 1
2123 1026 1
2123 3138 1
2123 1645 1
2123 2732 1
2123 1034 1
2123 3585 1
2123 2875 1
2123 2561 1
2123 43 1
1644 1 1
1644 2589 1
1644 536 1
1644 3627 1
1644 3101 1
1644 2112 1
692 1 1
692 1538 1
692 1553 1
2832 2672 1
2330 2563 1
2329 3587 1
1567 1 1
1567 2566 1
1567 3586 1
1567 3109 1
1567 3075 1
1567 86 1
1567 3652 1
1567 5 1
1567 16 1
1567 34 1
1567 1546 1
1567 520 1
1567 1071 1
1567 3174 1
1567 3585 1
1567 2570 1
1567 2105 1
1567 3182 1
1567 704 1
1567 1558 1
1567 530 1
1567 2567 1
1567 2602 1
1567 2052 1
1567 25 1
1567 2063 1
1567 2579 1
1567 1124 1
1567 40 1
1567 1229 1
1567 3649 1
1567 1853 1
3123 1 1
3123 2049 1
3123 521 1
3123 3127 1
3123 544 1
3123 1543 1
3123 31 1
3123 3241 1
3123 2570 1
3123 2072 1
3123 2561 1
3123 1031 1
3123 104 1
3123 2675 1
77 2049 1
77 2566 1
77 3077 1
77 2653 1
77 1217 1
77 3606 1
77 2067 1
77 2146 1
77 3117 1
77 2665 1
1656 1545 1
1656 3615 1
1656 3097 1
1656 513 1
1656 863 1
3665 1 1
3665 2049 1
3665 2563 1
3665 3081 1
3665 41 1
3665 1025 1
3665 1553 1
3665 1555 1
3665 1616 1
3665 1050 1
152 3075 1
152 2068 1
152 2565 1
1698 1027 1
1698 1035 1
1698 164 1
1817 1588 1
570 3617 1
570 1077 1
570 1647 1
570 3076 1
570 2562 1
570 3616 1
570 3083 1
570 2274 1
570 82 1
570 2660 1
570 1060 1
570 3089 1
570 3252 1
3204 1 1
3204 3074 1
3204 2561 1
3204 88 1
3745 3100 1
3745 1559 1
3745 1083 1
1678 3586 1
1678 2564 1
1678 1025 1
1678 519 1
1816 1148 1
1316 1 1
2609 525 1
2609 1537 1
2609 3599 1
2609 3081 1
2609 1025 1
2609 2134 1
2609 3616 1
2609 3123 1
2609 614 1
2609 1031 1
2609 13 1
2609 2614 1
2609 1270 1
2609 3593 1
2609 1118 1
2668 3073 1
2668 2082 1
2668 513 1
2668 3093 1
2668 1117 1
2668 3207 1
119 1551 1
119 2065 1
119 2142 1
119 37 1
119 2052 1
3742 3149 1
3742 1556 1
3742 83 1
2255 1102 1
2255 1045 1
1700 2566 1
1700 3 1
1700 2177 1
1232 520 1
1232 2775 1
1234 1054 1
1234 139 1
784 3587 1
258 2051 1
3604 1 1
3604 2050 1
3604 2049 1
3604 1030 1
3604 1545 1
3604 3078 1
3604 3087 1
3604 170 1
3604 870 1
3604 3080 1
3604 1543 1
3604 1567 1
3604 3211 1
3604 513 1
3604 2086 1
3604 536 1
3604 3083 1
3604 163 1
3604 3585 1
3604 1233 1
3604 3627 1
3604 49 1
3604 2658 1
3604 2053 1
3604 2766 1
3604 3183 1
3604 2611 1
3604 3587 1
3604 1547 1
3604 2271 1
3604 1549 1
3604 115 1
3604 3676 1
3604 1550 1
3604 3593 1
3604 3600 1
3604 1152 1
3604 140 1
3121 1 1
3121 3591 1
3121 3592 1
3121 2572 1
3121 2601 1
3121 1043 1
3121 1562 1
3121 56 1
3121 3585 1
3121 522 1
3121 3590 1
3121 527 1
3121 2266 1
3121 2602 1
3121 2575 1
3638 1 1
3638 2049 1
3638 3592 1
3638 521 1
3638 3133 1
3638 2725 1
3638 1231 1
3638 517 1
3638 1563 1
3638 1057 1
3638 3654 1
3638 3095 1
3638 93 1
3638 2092 1
2154 2563 1
2154 1055 1
2154 517 1
2154 2080 1
2154 2258 1
2154 2597 1
2154 1074 1
2144 2571 1
2144 2159 1
2144 3163 1
2144 522 1
2144 2056 1
2144 1061 1
2144 540 1
2144 3110 1
631 2569 1
631 3097 1
631 214 1
631 545 1
631 3593 1
2678 1538 1
2678 17 1
2678 1565 1
2678 1106 1
2678 1917 1
2324 839 1
1110 1 1
1110 2050 1
1110 1539 1
1110 1078 1
1110 37 1
1110 1032 1
1110 3142 1
1110 3129 1
1110 2182 1
2699 1788 1
2699 1664 1
2699 2101 1
2699 119 1
2173 1053 1
2173 528 1
2173 100 1
2173 1148 1
2173 2660 1
709 2594 1
709 2690 1
2722 1538 1
2722 5 1
2722 3627 1
1630 1 1
1630 2569 1
1630 2073 1
1630 2094 1
1630 520 1
1630 2568 1
1630 202 1
1630 2561 1
1679 3599 1
1679 1217 1
1679 528 1
1679 23 1
1751 2049 1
1751 2155 1
2323 2657 1
1669 3073 1
1669 1102 1
1669 2120 1
1669 2769 1
3267 1 1
3267 3593 1
2322 2057 1
1813 1551 1
1310 1030 1
1309 3635 1
781 2051 1
54 1 1
54 1030 1
54 3073 1
54 2571 1
54 3586 1
54 3 1
54 525 1
54 543 1
54 1025 1
54 3080 1
54 513 1
54 3606 1
54 84 1
2648 3074 1
2648 3079 1
2648 2588 1
2648 2568 1
2648 1027 1
2648 3134 1
2648 3609 1
2648 2053 1
205 2580 1
205 513 1
780 515 1
2321 1026 1
255 1537 1
2217 2589 1
2217 55 1
2217 1638 1
2189 1541 1
2189 2221 1
2189 3622 1
2189 1582 1
254 167 1
3843 518 1
2764 517 1
2764 2681 1
3329 1542 1
3327 3590 1
3326 3098 1
2825 3081 1
2073 2049 1
2073 3074 1
2073 3073 1
2073 2 1
2073 3621 1
2073 523 1
2073 3107 1
2073 1537 1
2073 2680 1
2073 2640 1
2073 53 1
2073 1025 1
2073 535 1
2073 1546 1
2073 1590 1
2073 12 1
2073 3126 1
2073 56 1
2073 1631 1
2073 1213 1
2073 541 1
2073 1927 1
2073 646 1
2073 2131 1
2073 2565 1
2073 1634 1
2073 1676 1
2073 2061 1
2073 3593 1
2073 3600 1
2073 3658 1
2073 43 1
2073 3198 1
2073 1058 1
2073 2338 1
3161 3591 1
3161 5 1
3161 2054 1
3161 3284 1
3161 1028 1
3161 1628 1
3161 2052 1
3161 1581 1
53 3084 1
53 1041 1
53 519 1
53 2570 1
53 2056 1
53 1150 1
53 2053 1
53 1587 1
53 3605 1
53 2584 1
53 3593 1
53 1019 1
53 3597 1
2178 1543 1
2178 22 1
2178 513 1
2178 1050 1
2178 2614 1
3145 1 1
3145 3617 1
3145 539 1
3145 513 1
3145 519 1
3145 3585 1
3145 527 1
3145 1095 1
3145 1031 1
3145 2567 1
3145 2052 1
2327 1538 1
2176 525 1
2176 2627 1
2176 556 1
2176 2586 1
2176 2561 1
204 3081 1
204 1025 1
1122 1 1
1122 3591 1
1122 3173 1
1122 2082 1
1122 3588 1
1122 520 1
1122 1027 1
1122 43 1
1153 2654 1
1153 39 1
1153 1598 1
1153 1540 1
1153 540 1
2723 3077 1
2723 1564 1
2723 761 1
1814 2 1
2222 1026 1
2222 3650 1
2222 1037 1
1313 3105 1
1312 1851 1
2610 2049 1
2610 3074 1
2610 3 1
2610 523 1
2610 1073 1
2610 1537 1
2610 518 1
2610 1049 1
2610 2074 1
2610 2568 1
2610 31 1
2610 2056 1
2610 2084 1
2610 529 1
2703 2 1
2703 1025 1
2703 2859 1
2703 1028 1
3221 1 1
3221 3074 1
3221 3593 1
1311 2561 1
670 1 1
670 1541 1
670 2679 1
160 1564 1
160 531 1
160 948 1
1268 1537 1
1268 2057 1
256 1 1
2325 115 1
731 3603 1
731 1560 1
1610 1 1
1610 3586 1
1610 514 1
1610 1025 1
1610 519 1
1610 2603 1
1610 882 1
1610 3585 1
1610 3600 1
1610 2275 1
1610 677 1
2715 1537 1
2715 520 1
2715 2583 1
2652 1545 1
2652 3075 1
2652 2151 1
2652 1864 1
2652 517 1
2652 1037 1
2652 45 1
2652 2561 1
3334 3619 1
2169 513 1
2169 2113 1
2169 3106 1
2169 1556 1
2169 13 1
3690 3 1
3690 537 1
3690 1025 1
3690 517 1
3690 1618 1
3690 2068 1
3690 540 1
3333 3083 1
1775 3082 1
1775 2561 1
1701 1026 1
1701 2620 1
1701 240 1
117 2049 1
117 2 1
117 2638 1
117 3589 1
117 19 1
1263 1596 1
1263 538 1
3332 2567 1
3330 3093 1
2827 1538 1
1184 1539 1
1184 1547 1
1184 567 1
2826 2561 1
2326 2617 1
3122 1 1
3122 2049 1
3122 3074 1
3122 3586 1
3122 1236 1
3122 2173 1
3122 3595 1
3122 8 1
3122 24 1
3122 513 1
3122 2568 1
3122 3598 1
3122 2570 1
3122 3142 1
2682 1026 1
2682 2054 1
2682 2174 1
2682 1135 1
2682 1032 1
3720 514 1
3720 2609 1
3720 2694 1
3720 3214 1
3720 1606 1
1818 2050 1
2714 1545 1
2714 2572 1
2714 19 1
263 2056 1
3859 1 1
3183 1025 1
3183 2054 1
3183 2568 1
3183 3585 1
3183 2561 1
3183 1122 1
3347 3073 1
222 1 1
222 3081 1
2841 1044 1
3813 1537 1
3813 2051 1
1191 528 1
1191 2579 1
1191 540 1
2338 3080 1
1823 100 1
789 3074 1
262 3078 1
261 3145 1
1254 163 1
1254 542 1
1768 533 1
1768 1025 1
3590 1 1
3590 2050 1
3590 2049 1
3590 1030 1
3590 3073 1
3590 2 1
3590 1542 1
3590 2571 1
3590 3586 1
3590 1541 1
3590 1545 1
3590 2103 1
3590 533 1
3590 1538 1
3590 523 1
3590 3079 1
3590 1073 1
3590 3121 1
3590 2607 1
3590 1537 1
3590 514 1
3590 1551 1
3590 3143 1
3590 1079 1
3590 1026 1
3590 2564 1
3590 3097 1
3590 2070 1
3590 539 1
3590 3081 1
3590 2589 1
3590 2232 1
3590 1671 1
3590 1025 1
3590 3080 1
3590 2051 1
3590 1546 1
3590 2578 1
3590 1566 1
3590 3611 1
3590 3620 1
3590 2256 1
3590 2125 1
3590 520 1
3590 2754 1
3590 587 1
3590 513 1
3590 2055 1
3590 3090 1
3590 2562 1
3590 3606 1
3590 96 1
3590 3679 1
3590 1103 1
3590 2065 1
3590 2727 1
3590 515 1
3590 125 1
3590 1042 1
3590 2254 1
3590 62 1
3590 2570 1
3590 2056 1
3590 2087 1
3590 2123 1
3590 3625 1
3590 21 1
3590 1580 1
3590 3125 1
3590 575 1
3590 3209 1
3590 1587 1
3590 1081 1
3590 2855 1
3590 1554 1
3590 1083 1
3590 2141 1
3590 45 1
3590 1070 1
3590 2060 1
3590 550 1
3590 604 1
3590 707 1
3590 2561 1
3590 1028 1
3590 2567 1
3590 3091 1
3590 1608 1
3590 1086 1
3590 3128 1
3590 3589 1
3590 19 1
3590 3643 1
3590 548 1
3590 3092 1
3590 2117 1
3590 2815 1
3590 3600 1
3590 43 1
3590 221 1
3590 3116 1
3590 706 1
3590 2670 1
1563 1 1
1563 2050 1
1563 2049 1
1563 3073 1
1563 1542 1
1563 1538 1
1563 3079 1
1563 1537 1
1563 2062 1
1563 521 1
1563 1548 1
1563 17 1
1563 1671 1
1563 1033 1
1563 2121 1
1563 24 1
1563 2125 1
1563 3646 1
1563 2076 1
1563 513 1
1563 3076 1
1563 2725 1
1563 1876 1
1563 2194 1
1563 3594 1
1563 2085 1
1563 527 1
1563 2561 1
1563 2567 1
1563 3181 1
1563 2565 1
1563 2052 1
1563 1600 1
1563 3151 1
3597 2050 1
3597 2049 1
3597 3074 1
3597 3073 1
3597 2571 1
3597 534 1
3597 2572 1
3597 3121 1
3597 1537 1
3597 516 1
3597 3109 1
3597 3108 1
3597 3097 1
3597 5 1
3597 1076 1
3597 869 1
3597 1543 1
3597 3588 1
3597 2590 1
3597 2094 1
3597 1033 1
3597 520 1
3597 2596 1
3597 2774 1
3597 3148 1
3597 2582 1
3597 3163 1
3597 2056 1
3597 3612 1
3597 3101 1
3597 112 1
3597 3594 1
3597 72 1
3597 2749 1
3597 2060 1
3597 2561 1
3597 60 1
3597 3193 1
3597 2736 1
3597 1054 1
3597 3623 1
3597 9 1
3597 247 1
1578 1 1
1578 3074 1
1578 3073 1
1578 2563 1
1578 17 1
1578 3595 1
1578 537 1
1578 3588 1
1578 1049 1
1578 3631 1
1578 39 1
1578 1027 1
1578 2639 1
1578 3091 1
1578 2843 1
1578 3198 1
1578 754 1
3092 1 1
3092 3073 1
3092 3586 1
3092 3 1
3092 3077 1
3092 2058 1
3092 516 1
3092 747 1
3092 3103 1
3092 1539 1
3092 16 1
3092 1025 1
3092 3080 1
3092 1648 1
3092 1141 1
3092 2654 1
3092 2057 1
3092 1791 1
3092 10 1
3092 2067 1
3092 1113 1
3092 541 1
3092 1557 1
3092 2087 1
3092 36 1
3092 1556 1
3092 3590 1
3092 1208 1
3092 3247 1
3092 2561 1
3092 1634 1
3092 1086 1
3092 99 1
3092 2770 1
3092 1596 1
3092 3600 1
3092 2711 1
3092 3281 1
48 2050 1
48 3074 1
48 3079 1
48 3075 1
48 1026 1
48 2564 1
48 519 1
48 1562 1
48 1584 1
48 1037 1
48 1031 1
48 1060 1
48 1550 1
48 538 1
3162 514 1
3162 518 1
3162 528 1
3162 2167 1
3162 1940 1
3162 1050 1
3162 3237 1
3162 3610 1
1190 24 1
1190 2055 1
1190 2057 1
534 1053 1
534 27 1
534 1541 1
534 2595 1
534 3079 1
534 2058 1
534 516 1
534 2563 1
534 1544 1
534 3103 1
534 5 1
534 17 1
534 3138 1
534 3194 1
534 1645 1
534 535 1
534 81 1
534 8 1
534 2198 1
534 3230 1
534 513 1
534 3616 1
534 3184 1
534 3088 1
534 524 1
534 1612 1
534 130 1
534 1622 1
534 1068 1
534 3605 1
534 2063 1
534 688 1
534 4 1
534 3154 1
534 3112 1
534 978 1
563 1 1
563 2049 1
563 1542 1
563 2058 1
563 3075 1
563 3659 1
563 537 1
563 3585 1
563 522 1
563 2244 1
563 3590 1
563 1547 1
563 3639 1
563 2604 1
1082 1 1
1082 3611 1
1082 24 1
1082 1108 1
1082 3082 1
1082 57 1
1082 6 1
1082 2079 1
1082 2090 1
1082 2068 1
1082 1570 1
1082 3130 1
1082 2705 1
3724 3107 1
3724 3603 1
3724 4 1
3724 43 1
3648 1 1
3648 2049 1
3648 3 1
3648 2103 1
3648 1048 1
3648 518 1
3648 1543 1
3648 2621 1
3648 2076 1
3648 2055 1
3648 2056 1
3648 2561 1
3648 2068 1
3276 2050 1
3276 69 1
81 3074 1
81 537 1
81 55 1
81 3590 1
81 2561 1
81 3112 1
81 40 1
81 1058 1
81 3610 1
3860 2087 1
2062 1 1
2062 2049 1
2062 2566 1
2062 3 1
2062 3608 1
2062 1073 1
2062 2606 1
2062 1026 1
2062 3081 1
2062 3588 1
2062 2051 1
2062 3611 1
2062 1654 1
2062 3105 1
2062 2076 1
2062 1701 1
2062 1727 1
2062 519 1
2062 2057 1
2062 2065 1
2062 1029 1
2062 3135 1
2062 582 1
2062 1081 1
2062 1577 1
2062 2587 1
2062 2171 1
2062 1979 1
2062 2561 1
2062 3587 1
2062 545 1
2062 60 1
2062 2052 1
2062 25 1
2062 54 1
2062 1054 1
2062 1550 1
2062 2579 1
2062 2138 1
2062 2577 1
2062 1064 1
2062 3623 1
2062 3151 1
1065 1 1
1065 2 1
1065 2571 1
1065 1541 1
1065 3291 1
1065 1551 1
1065 1109 1
1065 3081 1
1065 2593 1
1065 639 1
1065 513 1
1065 2683 1
1065 3183 1
1065 3590 1
1065 2561 1
1065 2131 1
1065 124 1
2091 1 1
2091 3591 1
2091 3074 1
2091 1030 1
2091 3073 1
2091 1541 1
2091 1537 1
2091 1026 1
2091 3595 1
2091 3106 1
2091 1805 1
2091 3614 1
2091 3585 1
2091 2599 1
2091 1664 1
2091 1619 1
2091 902 1
2091 1065 1
2277 2571 1
2277 2057 1
2661 2050 1
2661 3073 1
2661 3096 1
2661 59 1
2661 18 1
2661 517 1
2661 786 1
3692 1544 1
3692 1025 1
3692 2057 1
3692 1619 1
3692 2561 1
3692 3587 1
3692 3238 1
2157 2049 1
2157 1030 1
2157 2581 1
2157 1025 1
2157 1040 1
2157 1032 1
2157 1050 1
1079 1 1
1079 3073 1
1079 2 1
1079 1537 1
1079 1026 1
1079 1543 1
1079 8 1
1079 1646 1
1079 3616 1
1079 3232 1
1079 944 1
1079 1664 1
1079 2561 1
2190 1 1
2190 1538 1
2190 3077 1
2190 2561 1
2216 2127 1
2216 3593 1
2216 1540 1
3348 3074 1
608 1538 1
608 1610 1
608 1029 1
608 1028 1
608 3589 1
608 1064 1
608 3089 1
608 1175 1
1189 1 1
1189 52 1
1189 2594 1
3810 1026 1
3810 1038 1
1038 1 1
1038 3073 1
1038 1542 1
1038 3586 1
1038 2595 1
1038 3592 1
1038 3608 1
1038 3100 1
1038 1537 1
1038 3078 1
1038 111 1
1038 521 1
1038 1539 1
1038 2581 1
1038 17 1
1038 539 1
1038 3659 1
1038 1025 1
1038 2617 1
1038 1033 1
1038 513 1
1038 2055 1
1038 3076 1
1038 519 1
1038 532 1
1038 2064 1
1038 3148 1
1038 515 1
1038 798 1
1038 3627 1
1038 1630 1
1038 2708 1
1038 1031 1
1038 3587 1
1038 2068 1
1038 3589 1
1038 19 1
1038 1089 1
1038 40 1
1038 1575 1
1038 2642 1
595 27 1
595 3075 1
595 103 1
595 2192 1
595 146 1
595 19 1
595 107 1
595 1575 1
595 2613 1
2607 3074 1
2607 533 1
2607 3604 1
2607 519 1
2607 3257 1
2607 1027 1
2607 3083 1
2607 524 1
2607 541 1
2607 1051 1
2607 2788 1
2607 1080 1
2607 2189 1
2607 3600 1
2607 3165 1
1774 1546 1
1774 2580 1
1597 1053 1
1597 3586 1
1597 3 1
1597 1537 1
1597 521 1
1597 2059 1
1597 3138 1
1597 3595 1
1597 48 1
1597 18 1
1597 3585 1
1597 1131 1
1597 1066 1
131 533 1
131 3103 1
131 3599 1
131 3601 1
3197 1 1
3197 3592 1
3197 3604 1
3197 1104 1
1708 1537 1
1708 1055 1
1708 1584 1
1132 2049 1
1132 1026 1
1132 2073 1
1132 3588 1
1132 56 1
1132 6 1
1132 2707 1
2185 1033 1
2185 881 1
2185 6 1
2185 2561 1
2185 2567 1
1260 3592 1
1260 3595 1
161 1026 1
161 884 1
161 1031 1
2196 1 1
2196 6 1
2196 1028 1
2196 2629 1
1829 3115 1
1828 2577 1
1614 7 1
1614 3100 1
1614 535 1
1614 524 1
1614 522 1
1614 2056 1
1614 3607 1
1614 1114 1
1614 3639 1
1614 1604 1
2690 518 1
2690 3599 1
2690 1686 1
2690 2793 1
2690 3628 1
1193 2049 1
1193 1541 1
1193 3103 1
1827 2562 1
2700 1565 1
2700 3083 1
2700 3593 1
2700 3610 1
159 519 1
159 52 1
159 2053 1
3731 1543 1
3731 2051 1
3731 1554 1
3731 2136 1
791 2049 1
1772 1068 1
1772 4 1
1771 71 1
1771 3596 1
790 3114 1
1059 1 1
1059 2049 1
1059 3073 1
1059 2 1
1059 3621 1
1059 2082 1
1059 2058 1
1059 3086 1
1059 2676 1
1059 3599 1
1059 41 1
1059 77 1
1059 3150 1
1059 3585 1
1059 49 1
1059 3125 1
1059 2192 1
1059 3673 1
1059 2561 1
1059 1028 1
1059 3093 1
1059 3091 1
1059 2145 1
1059 548 1
1059 2574 1
1059 3593 1
1059 1123 1
1059 2191 1
580 1 1
580 7 1
580 3608 1
580 1544 1
580 3599 1
580 1025 1
580 3618 1
580 3223 1
580 3101 1
580 2561 1
580 3589 1
580 2810 1
1094 3611 1
1094 2648 1
1094 1027 1
1094 517 1
1094 2072 1
1094 2056 1
1094 2561 1
1094 3613 1
1094 2149 1
1094 250 1
1094 2178 1
2211 3164 1
2211 3082 1
2211 1552 1
1588 2049 1
1588 2571 1
1588 3079 1
1588 2680 1
1588 2698 1
1588 1573 1
1588 2581 1
1588 12 1
1588 819 1
1588 2072 1
1588 2096 1
1588 162 1
1588 1056 1
1588 2675 1
607 1 1
607 38 1
607 1537 1
607 1565 1
607 31 1
607 2597 1
607 1604 1
607 2613 1
2716 3174 1
2716 1590 1
2716 1589 1
2837 682 1
3144 3617 1
3144 3586 1
3144 2585 1
3144 2643 1
3144 3105 1
3144 2632 1
3144 513 1
3144 3598 1
3144 2641 1
3144 1552 1
3144 191 1
615 3073 1
615 516 1
615 3078 1
615 3611 1
615 2076 1
615 1027 1
615 3268 1
2151 3074 1
2151 1048 1
2151 2564 1
2151 22 1
2151 2562 1
2151 3585 1
2151 3596 1
2331 160 1
3216 27 1
3216 3078 1
3216 518 1
719 1031 1
719 1591 1
3114 3591 1
3114 3073 1
3114 95 1
3114 543 1
3114 2175 1
3114 1043 1
3114 1651 1
3114 3094 1
3114 1561 1
3114 1186 1
3114 3614 1
3114 52 1
3114 2105 1
3114 1614 1
3114 3590 1
3114 2561 1
3114 3285 1
3194 2050 1
3194 519 1
3194 6 1
3194 2080 1
3194 2101 1
2745 1 1
2745 2077 1
2193 1 1
2193 3617 1
2193 3585 1
2193 3587 1
1220 1539 1
1220 254 1
1820 2778 1
3727 738 1
3727 531 1
3727 513 1
3727 3082 1
190 2055 1
190 3587 1
1706 3648 1
1706 2620 1
1706 1179 1
1819 9 1
1320 1537 1
3151 2049 1
3151 3586 1
3151 1026 1
3151 16 1
3151 3588 1
3151 1546 1
3151 3618 1
3151 3603 1
3151 2757 1
3151 2180 1
3721 3073 1
3721 3143 1
3721 1539 1
3721 1056 1
3721 2829 1
1707 1 1
1707 3589 1
1707 826 1
1734 2562 1
1734 18 1
2214 3113 1
2214 1050 1
2214 2088 1
1736 1077 1
1736 513 1
1318 13 1
3342 1537 1
619 2050 1
619 1539 1
619 1025 1
619 2793 1
619 3602 1
619 2561 1
619 1074 1
699 2568 1
699 1063 1
1738 2062 1
1738 2171 1
787 2050 1
695 1033 1
695 1082 1
259 1537 1
3854 2564 1
693 522 1
693 3593 1
2744 10 1
2744 659 1
3198 514 1
3198 520 1
3198 2142 1
3198 44 1
3852 1036 1
3851 2238 1
3850 3085 1
3849 1031 1
3084 1 1
3084 2566 1
3084 3073 1
3084 3077 1
3084 516 1
3084 3078 1
3084 3109 1
3084 3075 1
3084 3615 1
3084 2564 1
3084 521 1
3084 2669 1
3084 3081 1
3084 41 1
3084 34 1
3084 3588 1
3084 1546 1
3084 3601 1
3084 2121 1
3084 24 1
3084 2076 1
3084 513 1
3084 2098 1
3084 519 1
3084 2113 1
3084 2086 1
3084 171 1
3084 2095 1
3084 1034 1
3084 65 1
3084 515 1
3084 3166 1
3084 3590 1
3084 1035 1
3084 1051 1
3084 2565 1
3084 1039 1
3084 19 1
3084 3098 1
3084 3144 1
3084 1575 1
3084 1210 1
3084 1007 1
3084 549 1
3084 2885 1
3143 534 1
3143 1048 1
3143 2062 1
3143 3595 1
3143 3671 1
3143 2568 1
3143 1561 1
3143 3590 1
3143 3091 1
3143 1101 1
3143 1157 1
2111 3073 1
2111 2619 1
2111 518 1
2111 1569 1
2111 2094 1
2111 31 1
2111 3606 1
2111 2769 1
2111 20 1
2111 2565 1
2111 3098 1
2111 3116 1
2111 613 1
3746 514 1
3746 3587 1
3746 165 1
599 3127 1
599 1567 1
599 2055 1
599 1555 1
599 2080 1
599 2584 1
599 3613 1
599 2736 1
599 1147 1
1651 2 1
1651 1053 1
1651 3078 1
1651 2054 1
1651 3128 1
1651 44 1
3218 1025 1
3218 3625 1
3218 3655 1
3652 3074 1
3652 3073 1
3652 3079 1
3652 3619 1
3652 3194 1
3652 1025 1
3652 12 1
3652 2658 1
3652 3251 1
3652 1045 1
3652 1549 1
3652 3647 1
704 2652 1
704 9 1
1143 1537 1
1143 1029 1
1143 1547 1
1143 2084 1
1143 1068 1
1143 1552 1
1663 1 1
1663 12 1
1663 960 1
1663 2674 1
1663 3224 1
197 1041 1
197 2053 1
1702 28 1
1702 1566 1
1702 522 1
3344 3613 1
2603 1 1
2603 1545 1
2603 3173 1
2603 3615 1
2603 3081 1
2603 16 1
2603 2210 1
2603 34 1
2603 2590 1
2603 2593 1
2603 1072 1
2603 1027 1
2603 1555 1
2603 2081 1
2603 1086 1
2603 1602 1
2337 3611 1
1176 1 1
1176 3073 1
1176 3620 1
1176 2267 1
671 647 1
671 3083 1
671 99 1
2336 3148 1
1744 2684 1
1744 2604 1
3220 2563 1
3220 160 1
3220 1028 1
2334 252 1
3259 1546 1
3259 3585 1
2333 1031 1
2838 3111 1
3132 1 1
3132 3586 1
3132 2058 1
3132 1551 1
3132 3080 1
3132 22 1
3132 2137 1
3132 519 1
3132 2570 1
3132 2715 1
3132 1577 1
3132 2063 1
3132 2061 1
1747 3594 1
1747 3589 1
1697 3586 1
1697 2087 1
1697 1547 1
1740 1537 1
1740 165 1
2712 2050 1
2712 3591 1
2712 56 1
2712 1557 1
1321 1 1
788 1 1
1222 2049 1
1222 3092 1
260 1537 1
3154 3073 1
3154 1085 1
3154 1026 1
3154 2569 1
3154 521 1
3154 2054 1
3154 531 1
3154 3606 1
3154 126 1
1743 3588 1
1743 2051 1
3855 36 1
2839 1539 1
299 3596 1
1858 3656 1
1103 1564 1
1103 2057 1
1103 82 1
1103 3594 1
1103 2561 1
1103 1051 1
1103 1638 1
1103 2579 1
1103 837 1
1103 3294 1
3696 1 1
3696 521 1
3696 10 1
3696 2071 1
3696 1057 1
3696 529 1
3784 530 1
3784 565 1
2751 3586 1
2751 2561 1
3750 517 1
3750 1119 1
3750 2081 1
3253 2669 1
3253 513 1
3783 2694 1
3783 2561 1
2871 1026 1
2363 1027 1
3380 5 1
3747 1 1
3747 3601 1
3747 2562 1
1187 529 1
1187 2605 1
1187 1064 1
2369 1025 1
2865 3586 1
198 1028 1
198 1057 1
3748 1543 1
3748 1180 1
3748 3655 1
2860 27 1
2188 3073 1
2188 1541 1
2188 2165 1
2188 2726 1
816 3616 1
1353 3078 1
1553 1 1
1553 2049 1
1553 38 1
1553 3073 1
1553 3586 1
1553 7 1
1553 1538 1
1553 2591 1
1553 1537 1
1553 516 1
1553 3078 1
1553 2563 1
1553 3087 1
1553 1026 1
1553 2578 1
1553 1657 1
1553 2074 1
1553 2115 1
1553 31 1
1553 3202 1
1553 3096 1
1553 2162 1
1553 515 1
1553 3585 1
1553 1038 1
1553 1029 1
1553 2586 1
1553 1168 1
1553 1650 1
1553 29 1
1553 1039 1
1553 2052 1
1553 1549 1
1553 3128 1
1553 1658 1
1553 1626 1
1553 675 1
1553 866 1
1553 3600 1
1553 1540 1
2127 2057 1
2127 2582 1
2127 1865 1
2127 522 1
2127 2561 1
2127 2081 1
2127 1067 1
2127 1540 1
2127 9 1
2127 1074 1
1580 1542 1
1580 1538 1
1580 3079 1
1580 2564 1
1580 3103 1
1580 2590 1
1580 3620 1
1580 2568 1
1580 3603 1
1580 1029 1
1580 1558 1
1580 1549 1
1580 2224 1
1580 3593 1
1580 2613 1
1580 3089 1
1183 526 1
1183 3178 1
1183 1576 1
583 1 1
583 2566 1
583 1545 1
583 2591 1
583 3086 1
583 1026 1
583 2569 1
583 513 1
583 515 1
583 1675 1
583 3602 1
666 1 1
666 520 1
666 1032 1
1169 3075 1
1169 28 1
1169 3585 1
1169 3220 1
1606 2050 1
1606 3586 1
1606 1538 1
1606 3077 1
1606 1543 1
1606 2174 1
1606 1027 1
1606 3585 1
1606 1028 1
1606 2604 1
1606 3139 1
1732 1 1
1732 2644 1
3176 514 1
3176 3076 1
3176 515 1
3176 2570 1
3176 527 1
3176 654 1
696 3077 1
696 1026 1
3777 3586 1
3777 1025 1
3883 3586 1
3245 519 1
3245 2234 1
286 1204 1
2128 2050 1
2128 3586 1
2128 1538 1
2128 534 1
2128 3118 1
2128 3585 1
2128 1045 1
2128 1086 1
2128 3589 1
2128 3668 1
3709 514 1
3709 1026 1
3709 3619 1
3709 3657 1
3709 3593 1
2175 3103 1
2175 3663 1
2175 3145 1
2175 2561 1
2175 3593 1
700 2566 1
700 1033 1
3708 1642 1
3708 1584 1
3708 2053 1
3708 2561 1
3708 3172 1
287 3586 1
2743 2049 1
2743 2057 1
2743 19 1
817 1537 1
1349 129 1
3374 3077 1
288 3099 1
1599 1 1
1599 2050 1
1599 3588 1
1599 1651 1
1599 3104 1
1599 2246 1
1599 2561 1
1599 1031 1
1599 2112 1
1599 1540 1
1599 1065 1
1599 3151 1
2174 3079 1
2174 2564 1
2174 3585 1
2174 1029 1
2174 3089 1
625 1033 1
625 1555 1
625 1029 1
625 1563 1
625 3613 1
625 2161 1
2246 2572 1
2246 3640 1
689 1 1
689 1236 1
689 3104 1
813 38 1
2747 1542 1
2747 3099 1
2200 2571 1
2200 3077 1
2200 1554 1
2200 3114 1
2357 1563 1
688 2050 1
688 2561 1
688 1069 1
191 1 1
191 2564 1
3200 3586 1
3200 1545 1
3200 513 1
3200 1072 1
2873 516 1
3376 1 1
690 2050 1
690 2062 1
690 3080 1
1354 1600 1
2362 2655 1
298 5 1
2651 2569 1
2651 2055 1
2651 70 1
2651 3627 1
2651 3625 1
2651 2052 1
2651 1640 1
2651 2261 1
113 38 1
113 2593 1
113 2561 1
113 3587 1
113 530 1
113 2061 1
2647 2591 1
2647 174 1
2647 3105 1
2647 3598 1
2647 2287 1
2647 1622 1
2647 2579 1
2647 3628 1
3722 3617 1
3722 2576 1
3722 3600 1
3722 1282 1
1228 2076 1
1228 1061 1
2366 1 1
3378 21 1
1212 1564 1
1212 521 1
1212 2070 1
2733 3102 1
2733 3587 1
2733 3589 1
1231 3082 1
1231 3628 1
2755 1025 1
2755 2583 1
747 24 1
283 43 1
289 530 1
814 32 1
2742 1538 1
2742 1044 1
2742 3590 1
192 3586 1
192 3148 1
3251 747 1
3251 1101 1
295 1204 1
3885 1541 1
292 1038 1
3881 2568 1
2361 1537 1
561 1 1
561 2050 1
561 3074 1
561 2 1
561 2571 1
561 516 1
561 3620 1
561 1027 1
561 2167 1
561 3088 1
561 2056 1
561 1036 1
561 2107 1
561 3092 1
561 1540 1
1847 524 1
675 3586 1
675 1563 1
675 102 1
678 1544 1
678 2698 1
678 3191 1
2228 1026 1
2228 513 1
2228 6 1
1347 3632 1
1147 3592 1
1147 2070 1
1147 3134 1
1147 1044 1
1147 2561 1
1849 2095 1
3780 523 1
3780 3080 1
3371 1029 1
1853 3074 1
2368 1 1
3740 1 1
3740 3615 1
3740 513 1
3740 1540 1
167 833 1
167 1081 1
167 13 1
1739 1073 1
1739 2562 1
701 1537 1
701 3082 1
2367 1847 1
3887 1031 1
1857 2584 1
2248 3617 1
2248 1025 1
1355 2049 1
3760 1538 1
3760 1027 1
3760 1089 1
1860 1025 1
819 1538 1
2868 1091 1
3379 527 1
3377 1031 1
1229 516 1
1229 1043 1
2862 2052 1
285 1 1
2683 2 1
2683 7 1
2683 2100 1
2683 2583 1
2683 3600 1
1749 3587 1
1749 1165 1
2365 2789 1
2253 3592 1
2253 2065 1
201 1 1
201 1030 1
2859 1029 1
3370 3604 1
3789 1 1
3789 10 1
3373 1538 1
1861 1050 1
1746 1538 1
1746 3590 1
2561 1 1
2561 2050 1
2561 2049 1
2561 3591 1
2561 3074 1
2561 2566 1
2561 3073 1
2561 1542 1
2561 1053 1
2561 2571 1
2561 27 1
2561 3586 1
2561 1541 1
2561 2595 1
2561 7 1
2561 2078 1
2561 1545 1
2561 3621 1
2561 525 1
2561 1538 1
2561 3592 1
2561 3077 1
2561 14 1
2561 3608 1
2561 63 1
2561 3079 1
2561 2572 1
2561 2058 1
2561 3121 1
2561 3225 1
2561 1896 1
2561 1537 1
2561 514 1
2561 3109 1
2561 1052 1
2561 1564 1
2561 2563 1
2561 3086 1
2561 3624 1
2561 2656 1
2561 576 1
2561 518 1
2561 1551 1
2561 3087 1
2561 170 1
2561 1026 1
2561 2564 1
2561 2588 1
2561 3103 1
2561 3097 1
2561 1573 1
2561 1539 1
2561 2059 1
2561 3161 1
2561 1647 1
2561 1642 1
2561 2653 1
2561 5 1
2561 2070 1
2561 3081 1
2561 1565 1
2561 2631 1
2561 2589 1
2561 544 1
2561 3677 1
2561 3675 1
2561 537 1
2561 1025 1
2561 2054 1
2561 1543 1
2561 22 1
2561 3588 1
2561 1043 1
2561 2051 1
2561 2590 1
2561 1546 1
2561 3601 1
2561 46 1
2561 1033 1
2561 8 1
2561 24 1
2561 1947 1
2561 520 1
2561 1553 1
2561 3157 1
2561 1105 1
2561 3223 1
2561 2076 1
2561 3178 1
2561 587 1
2561 513 1
2561 2055 1
2561 3082 1
2561 3094 1
2561 3076 1
2561 31 1
2561 69 1
2561 519 1
2561 2066 1
2561 3106 1
2561 55 1
2561 3616 1
2561 1176 1
2561 1027 1
2561 532 1
2561 528 1
2561 3118 1
2561 2057 1
2561 536 1
2561 1034 1
2561 1561 1
2561 1088 1
2561 2624 1
2561 1610 1
2561 3083 1
2561 145 1
2561 2784 1
2561 515 1
2561 10 1
2561 3088 1
2561 3614 1
2561 2582 1
2561 2152 1
2561 1555 1
2561 3651 1
2561 1750 1
2561 1635 1
2561 1042 1
2561 98 1
2561 2786 1
2561 1631 1
2561 62 1
2561 3585 1
2561 524 1
2561 517 1
2561 2570 1
2561 2573 1
2561 1029 1
2561 3602 1
2561 2056 1
2561 3612 1
2561 1059 1
2561 2594 1
2561 3101 1
2561 6 1
2561 2079 1
2561 23 1
2561 3206 1
2561 608 1
2561 3622 1
2561 2090 1
2561 1840 1
2561 3625 1
2561 1556 1
2561 1650 1
2561 1615 1
2561 2709 1
2561 1172 1
2561 2053 1
2561 1036 1
2561 2080 1
2561 1078 1
2561 1617 1
2561 586 1
2561 1587 1
2561 1588 1
2561 2108 1
2561 2212 1
2561 1119 1
2561 2686 1
2561 1301 1
2561 3183 1
2561 926 1
2561 3321 1
2561 1146 1
2561 3590 1
2561 2587 1
2561 1035 1
2561 1554 1
2561 1098 1
2561 2141 1
2561 527 1
2561 45 1
2561 2665 1
2561 1090 1
2561 2207 1
2561 1191 1
2561 37 1
2561 2633 1
2561 3665 1
2561 1070 1
2561 3195 1
2561 1623 1
2561 678 1
2561 680 1
2561 1624 1
2561 2193 1
2561 1174 1
2561 2127 1
2561 2795 1
2561 128 1
2561 1158 1
2561 1031 1
2561 3587 1
2561 2131 1
2561 1028 1
2561 3093 1
2561 530 1
2561 2626 1
2561 2567 1
2561 2565 1
2561 2166 1
2561 1057 1
2561 109 1
2561 1958 1
2561 2052 1
2561 3605 1
2561 25 1
2561 2584 1
2561 1637 1
2561 712 1
2561 3589 1
2561 19 1
2561 2063 1
2561 2088 1
2561 3260 1
2561 2697 1
2561 2574 1
2561 3092 1
2561 3098 1
2561 1550 1
2561 3187 1
2561 2189 1
2561 3095 1
2561 3144 1
2561 3256 1
2561 1224 1
2561 2757 1
2561 3600 1
2561 538 1
2561 1601 1
2561 2101 1
2561 948 1
2561 1602 1
2561 759 1
2561 2625 1
2561 599 1
2561 3239 1
2561 2649 1
2561 3146 1
2561 877 1
2561 1161 1
2561 984 1
2561 981 1
2561 3636 1
2561 2803 1
2561 3165 1
2561 1540 1
2561 35 1
2561 2092 1
2561 2219 1
2561 3089 1
2561 540 1
2561 1129 1
2561 1606 1
2561 737 1
2561 1205 1
2561 1221 1
2561 888 1
2561 3192 1
2561 3597 1
2561 1235 1
6 1 1
6 2050 1
6 2049 1
6 2566 1
6 1030 1
6 3073 1
6 1542 1
6 3586 1
6 2595 1
6 1538 1
6 3592 1
6 3077 1
6 14 1
6 2572 1
6 3084 1
6 1537 1
6 3078 1
6 2062 1
6 514 1
6 3604 1
6 518 1
6 1079 1
6 1026 1
6 1544 1
6 521 1
6 5 1
6 1548 1
6 17 1
6 544 1
6 1025 1
6 2054 1
6 1543 1
6 3588 1
6 1043 1
6 2621 1
6 3618 1
6 8 1
6 520 1
6 1553 1
6 513 1
6 2083 1
6 39 1
6 3598 1
6 2562 1
6 3678 1
6 11 1
6 528 1
6 216 1
6 3585 1
6 2570 1
6 2106 1
6 1557 1
6 1131 1
6 1059 1
6 23 1
6 3594 1
6 3123 1
6 2108 1
6 1082 1
6 1577 1
6 2611 1
6 2576 1
6 2248 1
6 823 1
6 275 1
6 1313 1
6 2127 1
6 1981 1
6 1977 1
6 2561 1
6 3587 1
6 1028 1
6 2567 1
6 1039 1
6 2583 1
6 2052 1
6 25 1
6 529 1
6 3172 1
6 3589 1
6 54 1
6 2197 1
6 1080 1
6 4 1
6 3098 1
6 2230 1
6 2296 1
6 1597 1
6 154 1
6 3593 1
6 2579 1
6 3638 1
6 3198 1
6 1058 1
6 3089 1
6 540 1
6 1599 1
6 1125 1
6 3110 1
6 3201 1
6 134 1
2567 1 1
2567 2050 1
2567 2049 1
2567 3074 1
2567 3073 1
2567 3586 1
2567 1545 1
2567 525 1
2567 1538 1
2567 3077 1
2567 2082 1
2567 2058 1
2567 1537 1
2567 514 1
2567 3075 1
2567 526 1
2567 2563 1
2567 1026 1
2567 2564 1
2567 2569 1
2567 1544 1
2567 521 1
2567 17 1
2567 869 1
2567 3081 1
2567 3138 1
2567 3595 1
2567 1671 1
2567 537 1
2567 1025 1
2567 3080 1
2567 22 1
2567 3588 1
2567 3631 1
2567 2578 1
2567 2094 1
2567 1040 1
2567 1033 1
2567 2069 1
2567 3632 1
2567 2663 1
2567 1193 1
2567 1071 1
2567 513 1
2567 3603 1
2567 3102 1
2567 12 1
2567 3106 1
2567 528 1
2567 2064 1
2567 3662 1
2567 940 1
2567 2603 1
2567 2057 1
2567 3096 1
2567 1034 1
2567 1102 1
2567 2624 1
2567 75 1
2567 515 1
2567 2163 1
2567 3614 1
2567 2582 1
2567 2152 1
2567 517 1
2567 20 1
2567 1029 1
2567 2599 1
2567 3609 1
2567 2594 1
2567 3101 1
2567 6 1
2567 3644 1
2567 21 1
2567 2709 1
2567 2053 1
2567 3673 1
2567 2196 1
2567 2666 1
2567 2242 1
2567 1547 1
2567 2565 1
2567 2583 1
2567 1549 1
2567 1069 1
2567 1050 1
2567 1639 1
2567 559 1
2567 107 1
2567 1275 1
2567 3593 1
2567 1124 1
2567 3668 1
2567 2295 1
2567 1089 1
2567 917 1
2567 1058 1
2567 9 1
2567 114 1
2567 3162 1
2567 706 1
532 1 1
532 2050 1
532 2049 1
532 2566 1
532 3073 1
532 2 1
532 2078 1
532 3079 1
532 2058 1
532 1537 1
532 3075 1
532 1544 1
532 1041 1
532 3641 1
532 1025 1
532 2054 1
532 3588 1
532 3646 1
532 39 1
532 519 1
532 2562 1
532 1027 1
532 1088 1
532 3083 1
532 10 1
532 1555 1
532 125 1
532 18 1
532 1859 1
532 1100 1
532 3594 1
532 3596 1
532 1061 1
532 2093 1
532 2575 1
532 1050 1
532 1640 1
532 122 1
1539 1 1
1539 2050 1
1539 2049 1
1539 3074 1
1539 2566 1
1539 3073 1
1539 2571 1
1539 3617 1
1539 2595 1
1539 1545 1
1539 1538 1
1539 3077 1
1539 2082 1
1539 1048 1
1539 1537 1
1539 514 1
1539 3075 1
1539 526 1
1539 2563 1
1539 547 1
1539 1077 1
1539 2569 1
1539 521 1
1539 543 1
1539 1539 1
1539 2581 1
1539 3263 1
1539 53 1
1539 17 1
1539 539 1
1539 3081 1
1539 3675 1
1539 1025 1
1539 3080 1
1539 2054 1
1539 2109 1
1539 3588 1
1539 1055 1
1539 2051 1
1539 2593 1
1539 531 1
1539 1108 1
1539 2075 1
1539 3646 1
1539 1138 1
1539 2076 1
1539 2648 1
1539 513 1
1539 2055 1
1539 2568 1
1539 39 1
1539 3094 1
1539 3076 1
1539 519 1
1539 2562 1
1539 3102 1
1539 12 1
1539 3106 1
1539 1072 1
1539 1176 1
1539 1027 1
1539 11 1
1539 3096 1
1539 30 1
1539 3660 1
1539 515 1
1539 2110 1
1539 59 1
1539 2582 1
1539 1675 1
1539 3585 1
1539 524 1
1539 517 1
1539 20 1
1539 1563 1
1539 2056 1
1539 1059 1
1539 2594 1
1539 1593 1
1539 3594 1
1539 3625 1
1539 1134 1
1539 1650 1
1539 2877 1
1539 1307 1
1539 1037 1
1539 527 1
1539 2665 1
1539 2576 1
1539 1684 1
1539 649 1
1539 1220 1
1539 128 1
1539 217 1
1539 724 1
1539 2561 1
1539 1031 1
1539 1547 1
1539 3093 1
1539 3142 1
1539 2583 1
1539 2575 1
1539 1549 1
1539 2738 1
1539 1050 1
1539 2768 1
1539 1066 1
1539 548 1
1539 1054 1
1539 2061 1
1539 196 1
1539 126 1
1539 1540 1
1539 3089 1
1539 2276 1
1539 2272 1
1539 2642 1
1539 3217 1
1539 2741 1
1539 3597 1
1539 1909 1
2067 1 1
2067 38 1
2067 533 1
2067 534 1
2067 1537 1
2067 3075 1
2067 3624 1
2067 103 1
2067 2235 1
2067 521 1
2067 1647 1
2067 1669 1
2067 2054 1
2067 531 1
2067 3618 1
2067 113 1
2067 3115 1
2067 513 1
2067 2055 1
2067 2568 1
2067 2066 1
2067 2562 1
2067 30 1
2067 2065 1
2067 2168 1
2067 3594 1
2067 2239 1
2067 1663 1
2067 1092 1
2067 1098 1
2067 2576 1
2067 3613 1
2067 1066 1
2067 4 1
2067 2136 1
2067 118 1
2067 2157 1
2067 1571 1
3083 3591 1
3083 3074 1
3083 38 1
3083 3073 1
3083 1542 1
3083 1545 1
3083 3079 1
3083 2572 1
3083 3107 1
3083 2062 1
3083 3075 1
3083 1539 1
3083 2581 1
3083 3650 1
3083 3081 1
3083 3595 1
3083 3080 1
3083 2054 1
3083 3588 1
3083 531 1
3083 2074 1
3083 3105 1
3083 513 1
3083 69 1
3083 2562 1
3083 3606 1
3083 1154 1
3083 1610 1
3083 2786 1
3083 1631 1
3083 3585 1
3083 2570 1
3083 541 1
3083 1029 1
3083 2056 1
3083 2079 1
3083 23 1
3083 2123 1
3083 1036 1
3083 1037 1
3083 2752 1
3083 1083 1
3083 2186 1
3083 2240 1
3083 1032 1
3083 3587 1
3083 1632 1
3083 25 1
3083 1626 1
3083 2136 1
3083 2625 1
3083 2179 1
3083 3623 1
3083 35 1
3083 1021 1
3083 136 1
3083 251 1
3083 80 1
3083 2089 1
3083 1173 1
3138 3097 1
3138 1025 1
3138 3080 1
3138 3094 1
3138 3113 1
3138 21 1
3138 3099 1
3138 45 1
3138 2561 1
3138 3093 1
3138 657 1
3138 2290 1
3076 1 1
3076 2050 1
3076 2049 1
3076 3074 1
3076 2566 1
3076 1030 1
3076 1542 1
3076 3586 1
3076 2595 1
3076 1538 1
3076 3669 1
3076 2572 1
3076 1537 1
3076 516 1
3076 3075 1
3076 3604 1
3076 2563 1
3076 3086 1
3076 576 1
3076 1559 1
3076 2077 1
3076 3087 1
3076 1026 1
3076 2569 1
3076 1544 1
3076 3103 1
3076 1539 1
3076 17 1
3076 2173 1
3076 2662 1
3076 1025 1
3076 2054 1
3076 3588 1
3076 1055 1
3076 1546 1
3076 3601 1
3076 1040 1
3076 622 1
3076 1071 1
3076 2209 1
3076 513 1
3076 2055 1
3076 2568 1
3076 3082 1
3076 3076 1
3076 31 1
3076 2113 1
3076 2066 1
3076 2562 1
3076 2144 1
3076 1072 1
3076 1027 1
3076 96 1
3076 48 1
3076 1192 1
3076 2624 1
3076 2783 1
3076 515 1
3076 10 1
3076 2067 1
3076 2582 1
3076 3651 1
3076 1042 1
3076 2120 1
3076 3585 1
3076 517 1
3076 522 1
3076 1029 1
3076 2637 1
3076 2599 1
3076 1059 1
3076 6 1
3076 23 1
3076 2071 1
3076 3594 1
3076 3625 1
3076 561 1
3076 552 1
3076 167 1
3076 3590 1
3076 2154 1
3076 2721 1
3076 37 1
3076 197 1
3076 715 1
3076 3666 1
3076 2561 1
3076 1031 1
3076 2567 1
3076 2081 1
3076 2583 1
3076 2726 1
3076 3605 1
3076 91 1
3076 2063 1
3076 2112 1
3076 2604 1
3076 1626 1
3076 3098 1
3076 122 1
3076 644 1
3076 2149 1
3076 1598 1
3076 3593 1
3076 184 1
3076 3248 1
3076 2243 1
3076 1064 1
3076 1540 1
3076 1058 1
3076 2272 1
3076 3610 1
3598 3073 1
3598 2062 1
3598 3075 1
3598 518 1
3598 3080 1
3598 34 1
3598 1543 1
3598 1043 1
3598 2051 1
3598 1040 1
3598 1022 1
3598 520 1
3598 39 1
3598 3598 1
3598 2066 1
3598 2064 1
3598 1562 1
3598 3096 1
3598 536 1
3598 1561 1
3598 1610 1
3598 919 1
3598 3240 1
3598 3660 1
3598 3585 1
3598 2586 1
3598 1557 1
3598 6 1
3598 3622 1
3598 2053 1
3598 1082 1
3598 1159 1
3598 2884 1
3598 2266 1
3598 2084 1
3598 1050 1
3598 3092 1
3598 3187 1
3598 2061 1
3598 2180 1
3598 1540 1
3598 1605 1
1557 3591 1
1557 2571 1
1557 1541 1
1557 1538 1
1557 1062 1
1557 2059 1
1557 1041 1
1557 3081 1
1557 2232 1
1557 1543 1
1557 1546 1
1557 1655 1
1557 2083 1
1557 2098 1
1557 42 1
1557 1804 1
1557 3651 1
1557 1758 1
1557 1038 1
1557 1557 1
1557 1563 1
1557 3594 1
1557 2053 1
1557 1586 1
1557 2677 1
1557 3323 1
1557 37 1
1557 2561 1
1557 3587 1
1557 2131 1
1557 3129 1
1557 2623 1
1557 2579 1
1557 44 1
1557 2687 1
1557 9 1
1557 3229 1
3117 2050 1
3117 2049 1
3117 3073 1
3117 3586 1
3117 1574 1
3117 2075 1
3117 1553 1
3117 1139 1
3117 2114 1
3117 2618 1
3117 1164 1
3117 527 1
3117 25 1
3117 1224 1
3117 1065 1
3117 3597 1
528 1 1
528 7 1
528 525 1
528 1537 1
528 2563 1
528 3615 1
528 5 1
528 1565 1
528 1025 1
528 1142 1
528 2051 1
528 8 1
528 68 1
528 3090 1
528 2086 1
528 3645 1
528 3106 1
528 1027 1
528 2263 1
528 2064 1
528 1087 1
528 2570 1
528 541 1
528 1029 1
528 2586 1
528 3612 1
528 1613 1
528 3158 1
528 1615 1
528 1061 1
528 681 1
528 128 1
528 1928 1
528 2561 1
528 2567 1
528 1093 1
528 1170 1
528 825 1
528 3623 1
528 2651 1
1604 3586 1
1604 1048 1
1604 516 1
1604 514 1
1604 544 1
1604 1033 1
1604 536 1
1604 73 1
1604 2567 1
1604 4 1
1604 173 1
3642 1 1
3642 3586 1
3642 2609 1
3642 3080 1
3642 2051 1
3642 513 1
3642 2624 1
3642 3585 1
3642 2594 1
3642 2561 1
3642 4 1
3642 1602 1
3642 204 1
3642 3089 1
1723 7 1
1723 3585 1
1723 1070 1
1029 1 1
1029 2050 1
1029 2049 1
1029 3591 1
1029 3074 1
1029 2566 1
1029 3073 1
1029 2 1
1029 2571 1
1029 3 1
1029 1545 1
1029 3077 1
1029 534 1
1029 2082 1
1029 2058 1
1029 2062 1
1029 514 1
1029 3109 1
1029 1564 1
1029 1670 1
1029 3086 1
1029 3108 1
1029 1077 1
1029 1026 1
1029 2564 1
1029 2569 1
1029 3103 1
1029 521 1
1029 1539 1
1029 5 1
1029 2070 1
1029 212 1
1029 544 1
1029 3633 1
1029 34 1
1029 1543 1
1029 1055 1
1029 2051 1
1029 2578 1
1029 2116 1
1029 67 1
1029 8 1
1029 2121 1
1029 1094 1
1029 3115 1
1029 1553 1
1029 3105 1
1029 513 1
1029 3076 1
1029 519 1
1029 2562 1
1029 3106 1
1029 3202 1
1029 1088 1
1029 42 1
1029 2065 1
1029 3150 1
1029 3660 1
1029 2725 1
1029 10 1
1029 1635 1
1029 1857 1
1029 3585 1
1029 524 1
1029 517 1
1029 2570 1
1029 522 1
1029 1131 1
1029 3612 1
1029 2087 1
1029 36 1
1029 3594 1
1029 1044 1
1029 1045 1
1029 3290 1
1029 2053 1
1029 1061 1
1029 1577 1
1029 3325 1
1029 3590 1
1029 2587 1
1029 1191 1
1029 2561 1
1029 1031 1
1029 1028 1
1029 530 1
1029 3147 1
1029 3613 1
1029 2592 1
1029 2063 1
1029 1677 1
1029 1093 1
1029 2614 1
1029 4 1
1029 2136 1
1029 118 1
1029 1047 1
1029 961 1
1029 3264 1
1029 44 1
1029 3628 1
1029 140 1
1029 2213 1
1029 1175 1
1029 758 1
3105 1 1
3105 2050 1
3105 2049 1
3105 1030 1
3105 3073 1
3105 1542 1
3105 1545 1
3105 2619 1
3105 514 1
3105 1052 1
3105 1559 1
3105 2077 1
3105 1026 1
3105 539 1
3105 3080 1
3105 513 1
3105 517 1
3105 1063 1
3105 1029 1
3105 2056 1
3105 2259 1
3105 6 1
3105 600 1
3105 1075 1
3105 202 1
3105 1624 1
3105 1028 1
3105 1057 1
3105 673 1
3105 231 1
3105 776 1
3106 1 1
3106 2050 1
3106 2049 1
3106 3074 1
3106 1541 1
3106 1538 1
3106 3079 1
3106 1537 1
3106 1026 1
3106 1544 1
3106 521 1
3106 3619 1
3106 537 1
3106 3080 1
3106 2121 1
3106 2580 1
3106 1096 1
3106 2055 1
3106 2083 1
3106 3094 1
3106 3585 1
3106 524 1
3106 2072 1
3106 1563 1
3106 1115 1
3106 73 1
3106 880 1
3106 2061 1
3106 3658 1
3106 114 1
2618 2050 1
2618 2049 1
2618 3073 1
2618 53 1
2618 2051 1
2618 3614 1
2618 36 1
2618 797 1
2618 1035 1
2618 527 1
2618 1570 1
2618 3589 1
2618 3207 1
530 1 1
530 2050 1
530 2049 1
530 3073 1
530 1542 1
530 2571 1
530 3586 1
530 1538 1
530 1537 1
530 516 1
530 2563 1
530 1559 1
530 1543 1
530 513 1
530 3598 1
530 515 1
530 214 1
530 1660 1
530 2586 1
530 3612 1
530 23 1
530 3113 1
530 1659 1
530 120 1
530 2085 1
530 2053 1
530 2080 1
530 3590 1
530 3629 1
530 37 1
530 550 1
530 2565 1
530 3092 1
530 2600 1
530 2687 1
530 1581 1
530 1065 1
530 1144 1
530 2330 1
1603 2049 1
1603 3586 1
1603 1538 1
1603 523 1
1603 2563 1
1603 1026 1
1603 1049 1
1603 2055 1
1603 82 1
1603 3185 1
1603 2570 1
1603 1735 1
1124 3074 1
1124 3107 1
1124 3078 1
1124 3086 1
1124 2564 1
1124 1546 1
1124 2587 1
1124 2052 1
176 1 1
176 522 1
176 3165 1
1566 1 1
1566 2050 1
1566 2566 1
1566 1542 1
1566 3 1
1566 1545 1
1566 2103 1
1566 3077 1
1566 137 1
1566 3641 1
1566 1025 1
1566 3080 1
1566 531 1
1566 46 1
1566 8 1
1566 2648 1
1566 2064 1
1566 70 1
1566 2776 1
1566 2573 1
1566 3166 1
1566 1614 1
1566 1560 1
1566 762 1
1566 2097 1
1566 2060 1
1566 1623 1
1566 2565 1
1566 2052 1
1566 3092 1
1566 2681 1
1566 901 1
1566 80 1
3645 3075 1
3645 3086 1
3645 1026 1
3645 16 1
3645 2076 1
3645 3076 1
3645 2791 1
3645 3673 1
3645 3642 1
3645 3587 1
3645 2592 1
3645 3597 1
3645 3222 1
1104 1538 1
1104 1537 1
1104 1025 1
1104 3080 1
1104 3259 1
1104 3585 1
1104 1557 1
1104 552 1
1104 2197 1
1104 672 1
1661 534 1
1661 1537 1
1661 2581 1
1661 2123 1
1661 21 1
60 514 1
60 1026 1
60 2059 1
60 1548 1
60 1543 1
60 3115 1
60 2580 1
60 12 1
60 52 1
60 550 1
60 662 1
60 3144 1
1724 2563 1
1724 1057 1
1724 1157 1
100 514 1
100 1076 1
100 2051 1
100 3174 1
100 105 1
100 1586 1
100 2108 1
1716 6 1
1716 47 1
1716 1179 1
3587 1 1
3587 2050 1
3587 2049 1
3587 3074 1
3587 3073 1
3587 3617 1
3587 3586 1
3587 1541 1
3587 3 1
3587 7 1
3587 2585 1
3587 1545 1
3587 525 1
3587 2103 1
3587 3592 1
3587 523 1
3587 2591 1
3587 63 1
3587 3121 1
3587 1537 1
3587 3078 1
3587 514 1
3587 526 1
3587 2563 1
3587 738 1
3587 1026 1
3587 521 1
3587 5 1
3587 17 1
3587 3127 1
3587 3081 1
3587 537 1
3587 3080 1
3587 1543 1
3587 2051 1
3587 2578 1
3587 1094 1
3587 520 1
3587 2622 1
3587 3105 1
3587 3667 1
3587 513 1
3587 2055 1
3587 3082 1
3587 31 1
3587 3598 1
3587 519 1
3587 1046 1
3587 2066 1
3587 2596 1
3587 1641 1
3587 11 1
3587 1154 1
3587 3663 1
3587 3120 1
3587 2057 1
3587 2639 1
3587 2177 1
3587 3150 1
3587 1665 1
3587 163 1
3587 515 1
3587 3088 1
3587 59 1
3587 1042 1
3587 1633 1
3587 517 1
3587 2570 1
3587 20 1
3587 522 1
3587 1029 1
3587 2586 1
3587 51 1
3587 2056 1
3587 3609 1
3587 3612 1
3587 3101 1
3587 3594 1
3587 1044 1
3587 3596 1
3587 33 1
3587 2053 1
3587 2080 1
3587 2683 1
3587 2239 1
3587 3099 1
3587 2587 1
3587 2060 1
3587 66 1
3587 2561 1
3587 1032 1
3587 3091 1
3587 1051 1
3587 1057 1
3587 54 1
3587 2592 1
3587 1189 1
3587 2172 1
3587 3676 1
3587 3630 1
3587 3154 1
3587 3208 1
3587 831 1
3587 1575 1
3587 108 1
3587 1010 1
3587 1604 1
3587 3635 1
3587 1606 1
3587 2202 1
3587 2821 1
3587 2182 1
3587 1157 1
3621 1030 1
3621 3 1
3621 523 1
3621 516 1
3621 3078 1
3621 1062 1
3621 1548 1
3621 3164 1
3621 1902 1
3621 2562 1
3621 1027 1
3621 3088 1
3621 2067 1
3621 3585 1
3621 2570 1
3621 2072 1
3621 1029 1
3621 2056 1
3621 1661 1
3621 3085 1
3621 2099 1
3621 2186 1
3621 13 1
3621 2063 1
3621 3191 1
3621 1668 1
3621 540 1
3621 1214 1
3616 3591 1
3616 3073 1
3616 27 1
3616 3586 1
3616 1538 1
3616 2572 1
3616 516 1
3616 2563 1
3616 2077 1
3616 2564 1
3616 2698 1
3616 1025 1
3616 81 1
3616 1672 1
3616 178 1
3616 513 1
3616 3094 1
3616 2562 1
3616 1027 1
3616 515 1
3616 522 1
3616 1059 1
3616 2087 1
3616 23 1
3616 1661 1
3616 3596 1
3616 15 1
3616 3593 1
3616 2579 1
3616 2613 1
3616 2250 1
3616 985 1
3125 2050 1
3125 1542 1
3125 2078 1
3125 3592 1
3125 2607 1
3125 3086 1
3125 3631 1
3125 3094 1
3125 2064 1
3125 2570 1
3125 57 1
3125 2056 1
3125 3261 1
3125 2635 1
2075 3074 1
2075 3586 1
2075 1538 1
2075 3077 1
2075 1026 1
2075 521 1
2075 1539 1
2075 17 1
2075 3127 1
2075 1025 1
2075 2051 1
2075 1566 1
2075 2580 1
2075 1643 1
2075 513 1
2075 3076 1
2075 519 1
2075 18 1
2075 1629 1
2075 3213 1
2075 1038 1
2075 57 1
2075 2586 1
2075 1100 1
2075 3166 1
2075 2060 1
2075 15 1
2075 1031 1
2075 2672 1
2075 2063 1
2075 2230 1
2075 3112 1
2075 1065 1
2075 3610 1
3166 1 1
3166 3074 1
3166 2059 1
3166 1183 1
3166 517 1
3166 1146 1
3166 2063 1
3166 1201 1
3625 1 1
3625 2585 1
3625 1538 1
3625 26 1
3625 1026 1
3625 521 1
3625 2070 1
3625 3081 1
3625 2054 1
3625 2777 1
3625 3585 1
3625 3594 1
3625 21 1
3625 1061 1
3625 1081 1
3625 25 1
3625 3589 1
3625 836 1
3625 1129 1
3625 110 1
618 2050 1
618 2563 1
618 1025 1
618 3620 1
618 1765 1
618 57 1
618 2561 1
3615 1 1
3615 2050 1
3615 3074 1
3615 38 1
3615 3073 1
3615 2 1
3615 1053 1
3615 3084 1
3615 3087 1
3615 1026 1
3615 3081 1
3615 1025 1
3615 2054 1
3615 2578 1
3615 2792 1
3615 513 1
3615 3082 1
3615 2562 1
3615 2065 1
3615 3244 1
3615 1042 1
3615 1563 1
3615 6 1
3615 2104 1
3615 1667 1
3615 715 1
3615 2561 1
3615 2081 1
3615 3287 1
3615 2565 1
3615 2574 1
3615 44 1
1100 2566 1
1100 1030 1
1100 1041 1
1100 1040 1
1100 2730 1
1100 1561 1
1100 168 1
1100 3590 1
1100 4 1
1100 1540 1
3670 1541 1
3670 523 1
3670 2137 1
3670 8 1
3670 522 1
3670 1557 1
3670 625 1
3670 714 1
3670 1064 1
1352 1025 1
1607 3621 1
1607 3115 1
1607 2622 1
1607 3105 1
1607 3223 1
1607 513 1
1607 3120 1
1607 2582 1
1607 524 1
1607 2079 1
1607 1540 1
1216 541 1
1216 6 1
3229 515 1
3229 1635 1
3229 1037 1
3094 1030 1
3094 3073 1
3094 2 1
3094 1053 1
3094 1538 1
3094 514 1
3094 3075 1
3094 2563 1
3094 2606 1
3094 1544 1
3094 1207 1
3094 34 1
3094 1543 1
3094 1033 1
3094 3090 1
3094 1590 1
3094 3145 1
3094 824 1
3094 1618 1
3094 1131 1
3094 3612 1
3094 49 1
3094 36 1
3094 1659 1
3094 1579 1
3094 180 1
3094 727 1
3094 1182 1
3094 1031 1
3094 1032 1
3094 3587 1
3094 1028 1
3094 2088 1
3094 2577 1
3094 3277 1
3094 549 1
3094 1967 1
47 3074 1
47 3079 1
47 1574 1
47 78 1
47 2606 1
47 1025 1
47 1566 1
47 2693 1
47 3585 1
47 2087 1
47 1083 1
47 1622 1
47 47 1
47 172 1
47 2147 1
1638 2571 1
1638 3078 1
1638 2578 1
1638 2074 1
1638 1562 1
1638 2053 1
1638 1035 1
2145 3194 1
2145 3102 1
2145 2773 1
2145 23 1
2145 1134 1
2145 3140 1
2145 3210 1
2145 3613 1
552 1 1
552 1053 1
552 2563 1
552 546 1
552 1025 1
552 178 1
552 513 1
552 69 1
552 2066 1
552 941 1
552 536 1
552 515 1
552 1186 1
552 3607 1
552 900 1
552 2186 1
552 64 1
552 3593 1
552 1835 1
1682 3258 1
1682 2707 1
1682 1028 1
1682 790 1
83 2571 1
83 516 1
83 2077 1
83 3588 1
83 1569 1
83 2057 1
83 1034 1
83 3152 1
83 40 1
297 2562 1
78 2664 1
78 533 1
78 3075 1
78 1026 1
78 8 1
78 513 1
78 3085 1
78 1547 1
78 3593 1
78 849 1
1660 2121 1
1660 116 1
1660 2083 1
1660 1562 1
1660 3227 1
1685 1027 1
1685 3585 1
1685 1029 1
1685 3085 1
102 1537 1
102 519 1
102 2603 1
102 522 1
102 2561 1
102 3089 1
1859 2561 1
2364 2053 1
3588 1 1
3588 2050 1
3588 3591 1
3588 1053 1
3588 27 1
3588 2664 1
3588 3586 1
3588 3 1
3588 2595 1
3588 2585 1
3588 3291 1
3588 1538 1
3588 3079 1
3588 1574 1
3588 2619 1
3588 3084 1
3588 1537 1
3588 516 1
3588 3078 1
3588 3075 1
3588 1026 1
3588 2564 1
3588 2588 1
3588 1544 1
3588 2676 1
3588 1539 1
3588 2073 1
3588 1642 1
3588 3599 1
3588 5 1
3588 1548 1
3588 17 1
3588 3127 1
3588 1076 1
3588 3081 1
3588 3265 1
3588 1025 1
3588 3080 1
3588 34 1
3588 1543 1
3588 2051 1
3588 2094 1
3588 1033 1
3588 1094 1
3588 3632 1
3588 3219 1
3588 2718 1
3588 2074 1
3588 3646 1
3588 3105 1
3588 709 1
3588 3082 1
3588 3076 1
3588 519 1
3588 32 1
3588 2562 1
3588 3616 1
3588 3606 1
3588 3083 1
3588 42 1
3588 515 1
3588 1555 1
3588 1087 1
3588 56 1
3588 778 1
3588 3585 1
3588 541 1
3588 2573 1
3588 1563 1
3588 2599 1
3588 1233 1
3588 2056 1
3588 3101 1
3588 2071 1
3588 2229 1
3588 3594 1
3588 1556 1
3588 573 1
3588 571 1
3588 2080 1
3588 1061 1
3588 2192 1
3588 552 1
3588 1577 1
3588 2587 1
3588 527 1
3588 15 1
3588 1120 1
3588 1900 1
3588 2561 1
3588 1031 1
3588 3181 1
3588 1051 1
3588 2584 1
3588 1570 1
3588 3129 1
3588 3200 1
3588 4 1
3588 3092 1
3588 2604 1
3588 627 1
3588 3188 1
3588 1552 1
3588 1226 1
3588 93 1
3588 1540 1
3588 140 1
3588 945 1
3588 3610 1
3588 3218 1
1555 2049 1
1555 1541 1
1555 1545 1
1555 1538 1
1555 3592 1
1555 3079 1
1555 3648 1
1555 3282 1
1555 117 1
1555 521 1
1555 1539 1
1555 5 1
1555 17 1
1555 1076 1
1555 2140 1
1555 1543 1
1555 1567 1
1555 3601 1
1555 1566 1
1555 2121 1
1555 1193 1
1555 2065 1
1555 2162 1
1555 76 1
1555 18 1
1555 2573 1
1555 6 1
1555 2079 1
1555 1580 1
1555 3131 1
1555 3607 1
1555 2561 1
1555 1028 1
1555 4 1
1555 538 1
1555 963 1
1555 1067 1
1555 2179 1
1555 206 1
3610 1 1
3610 2049 1
3610 3591 1
3610 1053 1
3610 3586 1
3610 1538 1
3610 2591 1
3610 534 1
3610 2058 1
3610 3225 1
3610 1537 1
3610 2563 1
3610 1551 1
3610 1026 1
3610 3279 1
3610 3080 1
3610 1645 1
3610 531 1
3610 3601 1
3610 1033 1
3610 1657 1
3610 3585 1
3610 2079 1
3610 1578 1
3610 1061 1
3610 527 1
3610 2561 1
3610 1031 1
3610 1547 1
3610 545 1
3610 2602 1
3610 3098 1
3610 1099 1
3610 538 1
3610 1201 1
1105 3074 1
1105 3149 1
1105 5 1
1105 520 1
1105 3076 1
1105 3096 1
1105 3099 1
1105 1554 1
1105 2189 1
1105 1104 1
20 1 1
20 3073 1
20 1538 1
20 3648 1
20 514 1
20 544 1
20 535 1
20 1040 1
20 513 1
20 1568 1
20 3090 1
20 2222 1
20 2095 1
20 30 1
20 2169 1
20 1243 1
20 3585 1
20 3602 1
20 1613 1
20 2618 1
20 1556 1
20 1168 1
20 3131 1
20 3167 1
20 1956 1
20 2561 1
20 2052 1
20 1143 1
20 2063 1
20 1215 1
20 2136 1
20 1552 1
20 3634 1
20 2231 1
20 902 1
20 2157 1
20 686 1
2645 1 1
2645 2 1
2645 1545 1
2645 516 1
2645 2155 1
2645 1553 1
2645 1027 1
2645 2057 1
2645 3110 1
1096 2050 1
1096 3586 1
1096 3 1
1096 1545 1
1096 533 1
1096 1537 1
1096 2140 1
1096 513 1
1096 1117 1
1096 645 1
1096 613 1
2158 862 1
2158 519 1
2158 3101 1
2158 6 1
2158 33 1
2158 2608 1
3599 1 1
3599 2049 1
3599 3074 1
3599 3073 1
3599 2 1
3599 2595 1
3599 1537 1
3599 1026 1
3599 1539 1
3599 2581 1
3599 2054 1
3599 1043 1
3599 1040 1
3599 520 1
3599 513 1
3599 2055 1
3599 3076 1
3599 940 1
3599 536 1
3599 2065 1
3599 515 1
3599 2067 1
3599 3126 1
3599 3614 1
3599 101 1
3599 3585 1
3599 1038 1
3599 2072 1
3599 553 1
3599 2053 1
3599 605 1
3599 1081 1
3599 1558 1
3599 3587 1
3599 1549 1
3599 2681 1
3599 2102 1
3599 3593 1
3599 2657 1
3599 897 1
3599 876 1
602 1545 1
602 1055 1
602 1033 1
602 1566 1
602 513 1
602 2055 1
602 3598 1
602 695 1
602 1626 1
88 3586 1
88 521 1
88 1094 1
88 3585 1
88 20 1
88 1028 1
88 2286 1
88 732 1
88 2763 1
1667 2572 1
1667 1136 1
1667 1015 1
1667 517 1
1667 1059 1
2638 1 1
2638 3 1
2638 3648 1
2638 2588 1
2638 1033 1
2638 2055 1
2638 2603 1
2638 2057 1
2638 517 1
2638 93 1
1215 3589 1
1215 3600 1
2872 3135 1
2293 2050 1
1035 1 1
1035 2049 1
1035 3074 1
1035 3073 1
1035 3586 1
1035 1538 1
1035 3592 1
1035 14 1
1035 1537 1
1035 1025 1
1035 3637 1
1035 2051 1
1035 1553 1
1035 2076 1
1035 513 1
1035 2568 1
1035 519 1
1035 2735 1
1035 1027 1
1035 1562 1
1035 3233 1
1035 42 1
1035 75 1
1035 1803 1
1035 138 1
1035 2105 1
1035 3661 1
1035 2658 1
1035 3644 1
1035 3594 1
1035 2053 1
1035 1037 1
1035 2130 1
1035 15 1
1035 2093 1
1035 1032 1
1035 3587 1
1035 2575 1
1035 64 1
1035 3154 1
1035 538 1
1035 795 1
1035 9 1
1035 602 1
2092 7 1
2092 518 1
2092 2129 1
2092 546 1
2092 68 1
2092 2562 1
2092 2164 1
2092 3126 1
2092 517 1
2092 3627 1
2092 2795 1
2092 1032 1
2092 1054 1
2092 831 1
2092 43 1
2092 3139 1
2092 80 1
1075 1541 1
1075 1040 1
1075 3646 1
1075 513 1
1075 598 1
1075 829 1
1075 72 1
1075 3590 1
1075 1554 1
1075 1075 1
1075 1625 1
1075 3655 1
1075 232 1
1075 2089 1
2797 2562 1
610 1 1
610 1106 1
610 2076 1
610 92 1
610 515 1
610 10 1
610 1029 1
610 1099 1
2701 1 1
2701 518 1
2701 1220 1
2701 668 1
1217 3075 1
1217 1560 1
231 513 1
1070 1 1
1070 2049 1
1070 3074 1
1070 3586 1
1070 1538 1
1070 2572 1
1070 3109 1
1070 1553 1
1070 517 1
1070 6 1
1070 3590 1
1070 2187 1
1070 15 1
1070 1060 1
1070 3137 1
653 3073 1
653 2054 1
653 524 1
653 1668 1
1733 2050 1
1733 524 1
1272 549 1
3717 1544 1
3717 513 1
3717 2055 1
3717 536 1
3717 3111 1
1218 2595 1
1218 20 1
3248 3073 1
3248 549 1
2289 513 1
1551 1 1
1551 2050 1
1551 3074 1
1551 2 1
1551 1541 1
1551 3608 1
1551 3107 1
1551 1537 1
1551 3604 1
1551 2077 1
1551 2588 1
1551 1062 1
1551 2233 1
1551 1025 1
1551 2054 1
1551 3588 1
1551 1546 1
1551 2069 1
1551 1643 1
1551 3082 1
1551 3076 1
1551 1027 1
1551 2702 1
1551 1042 1
1551 3585 1
1551 2570 1
1551 2106 1
1551 2573 1
1551 1556 1
1551 3111 1
1551 1616 1
1551 2099 1
1551 1667 1
1551 188 1
1551 1031 1
1551 3589 1
1551 548 1
1551 141 1
1551 826 1
1551 3110 1
1551 1929 1
1551 203 1
558 1 1
558 3073 1
558 3617 1
558 1026 1
558 3081 1
558 513 1
558 2119 1
558 1092 1
558 60 1
558 2052 1
558 4 1
558 40 1
558 2605 1
558 1540 1
558 3116 1
558 1175 1
592 1 1
592 3586 1
592 3 1
592 516 1
592 3619 1
592 1653 1
592 513 1
592 1578 1
592 2561 1
592 119 1
175 2568 1
175 519 1
175 2562 1
3634 1 1
3634 3669 1
3634 3225 1
3634 1559 1
3634 3619 1
3634 1041 1
3634 16 1
3634 3588 1
3634 557 1
3634 3235 1
3634 3673 1
3634 3093 1
3634 2052 1
3634 1067 1
3634 3110 1
3765 2572 1
3765 2568 1
3765 791 1
2297 520 1
600 2054 1
600 97 1
600 3594 1
600 3085 1
600 1174 1
600 1031 1
600 1080 1
600 3124 1
600 2128 1
173 3078 1
173 513 1
173 1824 1
3233 3073 1
3233 1537 1
3233 1943 1
1139 1 1
1139 27 1
1139 2568 1
1139 515 1
1139 1556 1
1139 3110 1
3299 4 1
3164 1 1
3164 2049 1
3164 3100 1
3164 1546 1
3164 1560 1
3164 2677 1
3164 3670 1
3164 4 1
2731 3074 1
2731 2719 1
2731 2097 1
1719 1538 1
1719 515 1
1719 1640 1
148 3135 1
148 2053 1
148 3587 1
148 2697 1
3256 20 1
3256 2561 1
234 1136 1
114 3 1
114 1537 1
114 2584 1
114 1581 1
114 9 1
114 1245 1
1791 856 1
1793 2098 1
3589 1 1
3589 2049 1
3589 3073 1
3589 1542 1
3589 27 1
3589 3586 1
3589 3 1
3589 2595 1
3589 1538 1
3589 3608 1
3589 2058 1
3589 2619 1
3589 3084 1
3589 1537 1
3589 514 1
3589 3075 1
3589 1621 1
3589 3108 1
3589 2606 1
3589 518 1
3589 26 1
3589 1026 1
3589 2588 1
3589 521 1
3589 1548 1
3589 2159 1
3589 2232 1
3589 1025 1
3589 3080 1
3589 3588 1
3589 1043 1
3589 2593 1
3589 1567 1
3589 535 1
3589 81 1
3589 3199 1
3589 2118 1
3589 520 1
3589 3178 1
3589 755 1
3589 3242 1
3589 2568 1
3589 3082 1
3589 3090 1
3589 3598 1
3589 1590 1
3589 2693 1
3589 3102 1
3589 1027 1
3589 532 1
3589 515 1
3589 10 1
3589 3088 1
3589 3614 1
3589 2120 1
3589 745 1
3589 3585 1
3589 524 1
3589 517 1
3589 2570 1
3589 2586 1
3589 1557 1
3589 2056 1
3589 85 1
3589 2594 1
3589 1630 1
3589 6 1
3589 2087 1
3589 2123 1
3589 1115 1
3589 1579 1
3589 3136 1
3589 1169 1
3589 131 1
3589 1163 1
3589 3590 1
3589 2154 1
3589 2576 1
3589 2633 1
3589 2762 1
3589 719 1
3589 1625 1
3589 217 1
3589 2561 1
3589 1031 1
3589 60 1
3589 2602 1
3589 628 1
3589 529 1
3589 1638 1
3589 1080 1
3589 4 1
3589 1054 1
3589 2620 1
3589 601 1
3589 2149 1
3589 3154 1
3589 3112 1
3589 765 1
3589 40 1
3589 79 1
3589 43 1
3589 1210 1
3589 850 1
3589 127 1
3589 554 1
3589 3222 1
3589 1204 1
2079 1 1
2079 2049 1
2079 3074 1
2079 2566 1
2079 7 1
2079 1545 1
2079 3079 1
2079 1537 1
2079 2563 1
2079 3615 1
2079 2054 1
2079 1543 1
2079 8 1
2079 2568 1
2079 3094 1
2079 1072 1
2079 1027 1
2079 536 1
2079 515 1
2079 3585 1
2079 2570 1
2079 3609 1
2079 3101 1
2079 3622 1
2079 1045 1
2079 3125 1
2079 3140 1
2079 2611 1
2079 3128 1
2079 791 1
2079 1540 1
2079 35 1
25 1 1
25 2050 1
25 2566 1
25 3073 1
25 2 1
25 3621 1
25 3079 1
25 1537 1
25 516 1
25 3652 1
25 3149 1
25 1062 1
25 546 1
25 2051 1
25 3667 1
25 3211 1
25 513 1
25 3076 1
25 1034 1
25 30 1
25 1038 1
25 3644 1
25 3665 1
25 3167 1
25 1700 1
25 1673 1
25 2068 1
25 2567 1
25 2660 1
25 2160 1
25 58 1
25 1058 1
25 3597 1
25 2147 1
2620 2566 1
2620 1030 1
2620 3586 1
2620 3592 1
2620 3078 1
2620 2563 1
2620 1543 1
2620 2617 1
2620 3106 1
2620 20 1
2620 1068 1
2620 1549 1
2620 1685 1
2068 2049 1
2068 3586 1
2068 3077 1
2068 2572 1
2068 1048 1
2068 1537 1
2068 3615 1
2068 1026 1
2068 2140 1
2068 1049 1
2068 39 1
2068 3076 1
2068 519 1
2068 32 1
2068 2562 1
2068 1072 1
2068 11 1
2068 3585 1
2068 2594 1
2068 6 1
2068 777 1
2068 2743 1
2068 1045 1
2068 3596 1
2068 2190 1
2068 1617 1
2068 1163 1
2068 2236 1
2068 3590 1
2068 2576 1
2068 2142 1
2068 2060 1
2068 607 1
2068 2561 1
2068 1550 1
2068 1596 1
2068 1002 1
2068 9 1
3636 3586 1
3636 534 1
3636 3075 1
3636 1564 1
3636 2055 1
3636 2562 1
3636 3102 1
3636 2086 1
3636 2612 1
3636 527 1
3636 1031 1
3636 2565 1
3636 1277 1
3636 2691 1
1616 1 1
1616 1538 1
1616 520 1
1616 1843 1
1616 2760 1
1616 1623 1
1616 3589 1
1616 1658 1
1616 4 1
1616 603 1
706 2571 1
706 1541 1
3614 1 1
3614 2050 1
3614 3 1
3614 1537 1
3614 516 1
3614 514 1
3614 1052 1
3614 1551 1
3614 1544 1
3614 1033 1
3614 1106 1
3614 520 1
3614 2580 1
3614 3090 1
3614 2610 1
3614 2086 1
3614 1620 1
3614 1177 1
3614 2655 1
3614 2666 1
3614 1688 1
3614 1973 1
3614 1032 1
3614 1558 1
3614 3587 1
3614 13 1
3614 2061 1
3614 2675 1
3614 2111 1
3614 1123 1
3614 3628 1
3614 153 1
3614 3224 1
585 1 1
585 1538 1
585 523 1
585 3079 1
585 3078 1
585 1046 1
585 1103 1
585 3585 1
585 3594 1
585 3596 1
585 73 1
3152 3074 1
3152 2572 1
3152 1025 1
3152 1055 1
3152 1546 1
3152 96 1
3152 2071 1
3152 1032 1
3152 3593 1
3152 1155 1
124 1 1
124 1565 1
124 1031 1
124 1628 1
124 3674 1
3136 3586 1
3136 1537 1
3136 26 1
3136 2073 1
3136 513 1
3136 2570 1
3136 3113 1
3136 187 1
3136 193 1
3136 1086 1
3136 3643 1
3136 3095 1
144 1 1
144 513 1
144 1027 1
144 1560 1
3695 1 1
3695 2 1
3695 1542 1
3695 2052 1
3695 108 1
3695 1585 1
3734 3073 1
3734 1538 1
3734 2062 1
3734 514 1
3104 1 1
3104 3074 1
3104 2566 1
3104 1030 1
3104 3073 1
3104 3592 1
3104 2606 1
3104 518 1
3104 2129 1
3104 2590 1
3104 2578 1
3104 8 1
3104 520 1
3104 3104 1
3104 513 1
3104 2568 1
3104 3082 1
3104 3106 1
3104 3585 1
3104 3594 1
3104 2567 1
3104 3142 1
3104 2565 1
3104 3095 1
3104 107 1
3104 3112 1
3104 2577 1
3104 1222 1
3104 3636 1
3104 2202 1
3104 1711 1
2114 1030 1
2114 1542 1
2114 3608 1
2114 28 1
2114 11 1
2114 3226 1
2114 524 1
2114 3661 1
2114 2104 1
2114 3169 1
2114 1058 1
2114 554 1
85 2049 1
85 3073 1
85 3592 1
85 2564 1
85 513 1
85 56 1
85 1582 1
85 2212 1
85 3597 1
2667 1049 1
2667 2562 1
2667 515 1
2667 3585 1
2667 3602 1
2667 2200 1
2136 2078 1
2136 3107 1
2136 1180 1
2136 3611 1
2136 3174 1
2136 517 1
2136 2570 1
2136 72 1
2136 37 1
3697 1026 1
3697 1629 1
3697 3585 1
3697 2879 1
3697 1039 1
3697 2724 1
3222 1 1
3222 3587 1
3222 1056 1
708 2051 1
708 3585 1
2608 2049 1
2608 3586 1
2608 1541 1
2608 534 1
2608 1025 1
2608 1841 1
2608 2080 1
2608 2097 1
2608 1031 1
2608 3172 1
2608 3589 1
2608 2697 1
2608 879 1
2608 995 1
2608 1147 1
640 1 1
640 3591 1
640 3640 1
640 3606 1
640 2067 1
2183 1 1
2183 3078 1
2183 3108 1
2183 2565 1
2183 3201 1
753 2085 1
1136 1 1
1136 3127 1
1136 941 1
1136 1237 1
1136 1145 1
1136 2565 1
659 1 1
659 2055 1
659 1035 1
659 3167 1
3596 1 1
3596 38 1
3596 3073 1
3596 1542 1
3596 1538 1
3596 2058 1
3596 1537 1
3596 516 1
3596 514 1
3596 1551 1
3596 2588 1
3596 1681 1
3596 2070 1
3596 1025 1
3596 28 1
3596 3588 1
3596 1055 1
3596 3637 1
3596 2118 1
3596 3164 1
3596 2648 1
3596 513 1
3596 12 1
3596 3126 1
3596 168 1
3596 18 1
3596 2599 1
3596 840 1
3596 3111 1
3596 1061 1
3596 3607 1
3596 1095 1
3596 2561 1
3596 1028 1
3596 2567 1
3596 2084 1
3596 1039 1
3596 1122 1
3596 2584 1
3596 699 1
3596 1099 1
3596 238 1
3596 40 1
3596 3649 1
3596 1144 1
566 2050 1
566 3074 1
566 3109 1
566 3659 1
566 513 1
566 2562 1
566 3106 1
566 1618 1
566 796 1
566 3590 1
566 3655 1
566 191 1
566 927 1
566 3089 1
1135 3624 1
1135 3675 1
1135 3588 1
1135 2121 1
1135 1063 1
1135 3085 1
740 12 1
2612 3074 1
2612 1542 1
2612 1545 1
2612 16 1
2612 537 1
2612 1025 1
2612 3601 1
2612 3585 1
2612 3622 1
2612 3085 1
2612 2176 1
2612 2127 1
2612 1028 1
2612 3600 1
3736 2083 1
3736 3585 1
3736 517 1
3736 2584 1
2160 2057 1
2160 2582 1
2160 3594 1
2160 1037 1
2160 2870 1
2160 1067 1
3817 2566 1
1126 1538 1
1126 2054 1
1126 2051 1
1126 2593 1
1126 2598 1
1126 524 1
1126 1554 1
1126 2764 1
2288 7 1
1194 3074 1
1194 2069 1
1194 3082 1
3737 1071 1
3737 513 1
3737 2168 1
3737 2093 1
3816 2101 1
550 1 1
550 1542 1
550 3617 1
550 3586 1
550 523 1
550 516 1
550 3075 1
550 2569 1
550 2643 1
550 3080 1
550 1141 1
550 3134 1
550 887 1
550 1555 1
550 3651 1
550 21 1
550 1112 1
550 1688 1
550 2561 1
550 2583 1
550 1067 1
550 3229 1
614 1025 1
614 2095 1
614 15 1
614 1638 1
614 2102 1
614 3593 1
614 3649 1
628 3119 1
628 2578 1
628 2144 1
628 11 1
628 944 1
628 2567 1
1748 525 1
1748 528 1
3814 1 1
3211 2050 1
3211 18 1
3211 2561 1
3211 3151 1
162 1 1
162 63 1
162 1554 1
2788 3585 1
2786 584 1
3623 1 1
3623 2664 1
3623 3586 1
3623 3592 1
3623 1048 1
3623 2671 1
3623 2059 1
3623 3595 1
3623 1025 1
3623 1569 1
3623 513 1
3623 3082 1
3623 515 1
3623 2067 1
3623 2599 1
3623 1593 1
3623 23 1
3623 3141 1
3623 1097 1
3623 3587 1
3623 2068 1
3623 2117 1
3623 2748 1
3623 134 1
1623 1542 1
1623 53 1
1623 1040 1
1623 1108 1
1623 2095 1
1623 1192 1
1623 2065 1
1623 20 1
1623 3654 1
1596 3073 1
1596 2571 1
1596 3087 1
1596 1025 1
1596 3618 1
1596 2745 1
1596 520 1
1596 2066 1
1596 2053 1
1596 3085 1
1596 530 1
1596 2567 1
1596 3095 1
627 534 1
627 3075 1
627 2118 1
627 3082 1
627 515 1
627 3099 1
3131 1 1
3131 1541 1
3131 1538 1
3131 1049 1
3131 81 1
3131 2621 1
3131 2116 1
3131 3101 1
3131 3596 1
3131 3590 1
3131 37 1
3131 3587 1
3131 529 1
2186 1 1
2186 2055 1
2186 2071 1
2186 3095 1
2186 1540 1
2103 1 1
2103 2049 1
2103 3100 1
2103 2051 1
2103 632 1
2103 513 1
2103 3090 1
2103 3660 1
2103 56 1
2103 3156 1
2103 1082 1
2103 1177 1
2103 2567 1
2103 3098 1
2187 1545 1
2187 3086 1
2187 1025 1
2187 3602 1
2187 2188 1
742 3103 1
3781 1036 1
3781 2081 1
3252 2569 1
3252 1628 1
226 27 1
1225 1 1
1225 1025 1
3667 518 1
3667 5 1
3667 3081 1
3667 1546 1
3667 515 1
3667 1036 1
3667 1120 1
3667 1558 1
3667 2787 1
3667 2798 1
3215 3073 1
3215 3586 1
3215 516 1
3215 2116 1
2247 14 1
2247 5 1
1293 1100 1
1294 2051 1
1624 2050 1
1624 2049 1
1624 1538 1
1624 3078 1
1624 3108 1
1624 3611 1
1624 1550 1
1624 2102 1
1624 1585 1
1221 31 1
1221 617 1
772 639 1
3250 1644 1
3250 2131 1
3837 1 1
2599 1 1
2599 3074 1
2599 3073 1
2599 1537 1
2599 3086 1
2599 2059 1
2599 3081 1
2599 16 1
2599 3595 1
2599 34 1
2599 46 1
2599 2074 1
2599 536 1
2599 51 1
2599 2079 1
2599 2053 1
2599 1140 1
2599 540 1
2599 3610 1
2727 1 1
2727 3073 1
2727 2604 1
3758 3079 1
3758 8 1
3758 2573 1
1151 1538 1
1151 3585 1
1151 517 1
1151 740 1
1151 1152 1
2312 3253 1
3711 2050 1
3711 3125 1
3711 2561 1
3711 2738 1
3711 1080 1
3313 2050 1
183 1 1
183 3074 1
183 2563 1
2249 1538 1
2249 3607 1
771 2591 1
1291 2049 1
1806 518 1
3786 2562 1
3786 3088 1
2309 2582 1
3775 525 1
3775 1538 1
3775 1537 1
3833 1058 1
3834 1540 1
518 1 1
518 2049 1
518 3591 1
518 2566 1
518 2 1
518 1542 1
518 2571 1
518 7 1
518 2585 1
518 3153 1
518 3592 1
518 523 1
518 3608 1
518 63 1
518 3079 1
518 534 1
518 2572 1
518 1537 1
518 514 1
518 3109 1
518 3604 1
518 526 1
518 3086 1
518 547 1
518 518 1
518 1559 1
518 2156 1
518 2680 1
518 208 1
518 2779 1
518 1026 1
518 2569 1
518 3097 1
518 1539 1
518 2581 1
518 17 1
518 539 1
518 3675 1
518 537 1
518 1025 1
518 2054 1
518 1543 1
518 2590 1
518 1645 1
518 531 1
518 2116 1
518 67 1
518 2122 1
518 24 1
518 3640 1
518 2580 1
518 2134 1
518 579 1
518 513 1
518 2055 1
518 2568 1
518 1568 1
518 31 1
518 2066 1
518 2562 1
518 12 1
518 1027 1
518 11 1
518 532 1
518 3118 1
518 3096 1
518 1561 1
518 1242 1
518 3150 1
518 2214 1
518 2582 1
518 2146 1
518 556 1
518 524 1
518 1063 1
518 2056 1
518 1044 1
518 3625 1
518 2085 1
518 577 1
518 2053 1
518 1560 1
518 3607 1
518 147 1
518 900 1
518 1031 1
518 2068 1
518 3147 1
518 2626 1
518 2567 1
518 1608 1
518 2052 1
518 3605 1
518 1570 1
518 224 1
518 1117 1
518 3589 1
518 1638 1
518 2620 1
518 3144 1
518 2238 1
518 1540 1
518 1585 1
518 1606 1
518 1969 1
527 1 1
527 2049 1
527 2566 1
527 1030 1
527 3586 1
527 1048 1
527 3205 1
527 1537 1
527 514 1
527 1564 1
527 1026 1
527 2569 1
527 1539 1
527 3080 1
527 2054 1
527 22 1
527 2593 1
527 3601 1
527 1033 1
527 2076 1
527 513 1
527 2083 1
527 3090 1
527 2126 1
527 2727 1
527 3088 1
527 1111 1
527 541 1
527 1038 1
527 51 1
527 2087 1
527 3171 1
527 1579 1
527 1036 1
527 3111 1
527 2683 1
527 37 1
527 2561 1
527 1057 1
527 3112 1
527 1540 1
3093 2049 1
3093 3586 1
3093 1545 1
3093 3077 1
3093 2563 1
3093 1126 1
3093 3271 1
3093 1025 1
3093 1567 1
3093 1546 1
3093 1040 1
3093 1679 1
3093 1033 1
3093 2075 1
3093 1933 1
3093 2568 1
3093 2066 1
3093 1562 1
3093 2067 1
3093 1555 1
3093 3585 1
3093 1029 1
3093 2143 1
3093 3125 1
3093 2628 1
3093 3590 1
3093 660 1
3093 2096 1
3093 2561 1
3093 13 1
3093 3091 1
3093 1051 1
3093 2052 1
3093 3593 1
3093 2577 1
3093 35 1
3093 2092 1
3093 3628 1
3673 3074 1
3673 3079 1
3673 3078 1
3673 3081 1
3673 1553 1
3673 541 1
3673 1037 1
3673 2565 1
3673 3623 1
1052 1 1
1052 2049 1
1052 2 1
1052 1538 1
1052 1048 1
1052 3615 1
1052 1551 1
1052 2564 1
1052 2073 1
1052 3122 1
1052 2589 1
1052 2116 1
1052 3199 1
1052 68 1
1052 3102 1
1052 12 1
1052 11 1
1052 1562 1
1052 1555 1
1052 3585 1
1052 2573 1
1052 1659 1
1052 749 1
1052 1035 1
1052 527 1
1052 3587 1
1052 1069 1
1052 3589 1
1052 538 1
1052 2600 1
1052 2321 1
1052 3089 1
2088 2073 1
2088 2568 1
2088 1590 1
2088 2693 1
2088 1088 1
2088 3083 1
2088 2110 1
2088 3585 1
2088 2056 1
2088 3111 1
2088 1083 1
2088 705 1
2088 3666 1
2088 1028 1
2088 2052 1
2088 1238 1
2088 2623 1
2088 2136 1
2088 3130 1
2088 3192 1
2636 1 1
2636 2054 1
2636 1562 1
2636 1029 1
2636 2328 1
2636 15 1
2636 1547 1
2636 1028 1
2636 2652 1
2636 1552 1
687 519 1
687 3156 1
687 91 1
1046 3074 1
1046 1542 1
1046 1541 1
1046 533 1
1046 523 1
1046 2058 1
1046 3078 1
1046 2563 1
1046 2581 1
1046 1565 1
1046 1025 1
1046 2054 1
1046 535 1
1046 3611 1
1046 68 1
1046 1046 1
1046 3606 1
1046 2057 1
1046 536 1
1046 3614 1
1046 3585 1
1046 3609 1
1046 2854 1
1046 2060 1
1046 66 1
1046 2561 1
1046 1031 1
1046 1028 1
1046 25 1
1046 2614 1
1046 2613 1
1046 3201 1
1046 812 1
1046 883 1
1046 853 1
1046 3278 1
3669 1 1
3669 2049 1
3669 3074 1
3669 3073 1
3669 1538 1
3669 3592 1
3669 1026 1
3669 2237 1
3669 3139 1
1637 1026 1
1637 3103 1
1637 3101 1
1637 1556 1
1637 1673 1
1637 1065 1
1637 2608 1
2251 1 1
2251 2063 1
2122 3073 1
2122 3586 1
2122 521 1
2122 3601 1
2122 3620 1
2122 2714 1
2122 513 1
2122 1046 1
2122 3585 1
2122 2750 1
2122 1552 1
3255 519 1
3255 3593 1
3238 2050 1
3238 2752 1
3238 1125 1
188 1026 1
188 2052 1
526 1 1
526 2050 1
526 2049 1
526 3586 1
526 3 1
526 1538 1
526 3604 1
526 518 1
526 1079 1
526 2640 1
526 1539 1
526 3599 1
526 5 1
526 17 1
526 2631 1
526 1025 1
526 1543 1
526 1142 1
526 513 1
526 2055 1
526 1088 1
526 1665 1
526 2163 1
526 522 1
526 1029 1
526 51 1
526 3171 1
526 21 1
526 1169 1
526 2085 1
526 2053 1
526 1037 1
526 2611 1
526 527 1
526 2561 1
526 19 1
526 3175 1
526 1161 1
526 1540 1
526 9 1
526 2794 1
526 748 1
572 2050 1
572 3075 1
572 1621 1
572 2564 1
572 2662 1
572 2568 1
572 3096 1
572 2573 1
572 1616 1
572 3590 1
572 1066 1
572 3212 1
572 1603 1
1077 3586 1
1077 3077 1
1077 1026 1
1077 2155 1
1077 3588 1
1077 1102 1
1077 2254 1
1077 3644 1
1077 2085 1
1077 1664 1
1077 2753 1
1077 2247 1
1077 3589 1
1077 4 1
1642 27 1
1642 520 1
1642 2570 1
1642 20 1
1642 2623 1
1642 692 1
3646 1 1
3646 523 1
3646 3100 1
3646 1048 1
3646 539 1
3646 2634 1
3646 1025 1
3646 2083 1
3646 3163 1
3646 20 1
3646 1029 1
3646 3627 1
3646 1115 1
1209 3586 1
1209 3090 1
1209 3120 1
1727 1026 1
1727 3677 1
1727 522 1
1302 3593 1
1636 7 1
1636 3080 1
1636 1776 1
1636 3651 1
1636 3085 1
1636 2561 1
1636 13 1
185 1537 1
185 2164 1
2238 2572 1
2238 55 1
2238 2646 1
1308 86 1
11 1 1
11 2050 1
11 2566 1
11 1030 1
11 1542 1
11 2571 1
11 3586 1
11 1541 1
11 1537 1
11 2062 1
11 1085 1
11 2563 1
11 26 1
11 3087 1
11 2564 1
11 521 1
11 3599 1
11 2070 1
11 2051 1
11 535 1
11 113 1
11 2069 1
11 2076 1
11 513 1
11 1027 1
11 2057 1
11 18 1
11 3585 1
11 1038 1
11 1029 1
11 2637 1
11 2090 1
11 3136 1
11 3099 1
11 1095 1
11 128 1
11 3587 1
11 13 1
11 542 1
11 1050 1
11 3658 1
11 2179 1
11 2201 1
11 127 1
11 2128 1
3115 3081 1
3115 1025 1
3115 1055 1
3115 1646 1
3115 3640 1
3115 3076 1
3115 3090 1
3115 1027 1
3115 2064 1
3115 3118 1
3115 3585 1
3115 1584 1
3115 21 1
3115 2785 1
3115 3639 1
3115 2600 1
3115 268 1
52 2050 1
52 3586 1
52 1538 1
52 523 1
52 3075 1
52 1025 1
52 1049 1
52 520 1
52 2055 1
52 1153 1
52 98 1
52 3093 1
52 2604 1
52 2170 1
1150 2050 1
1150 2566 1
1150 1062 1
1150 23 1
1150 36 1
70 3591 1
70 1545 1
70 3585 1
70 2053 1
70 1208 1
70 2068 1
70 1547 1
70 2567 1
70 2584 1
70 2604 1
70 2289 1
1213 518 1
1213 2057 1
1213 3589 1
1647 2 1
1647 1548 1
1647 1558 1
1647 1028 1
1647 2597 1
1647 933 1
184 1821 1
184 1212 1
184 21 1
74 3087 1
74 1539 1
74 539 1
74 1025 1
74 2071 1
74 924 1
74 1554 1
74 19 1
74 1064 1
74 35 1
3247 3073 1
3247 1551 1
251 3074 1
1810 22 1
1130 2581 1
1130 28 1
1130 2562 1
1130 2079 1
1130 2262 1
1130 2084 1
1130 40 1
141 2563 1
141 1539 1
141 1556 1
141 2608 1
2650 3074 1
2650 3586 1
2650 7 1
2650 1545 1
2650 3107 1
2650 3075 1
2650 1187 1
2650 3240 1
1219 1537 1
1219 1028 1
2676 3585 1
2676 2097 1
2676 2561 1
2676 1634 1
2676 3137 1
2318 3588 1
2666 1544 1
2666 3588 1
2666 1160 1
2666 1816 1
2666 2068 1
2666 2567 1
3324 2050 1
3790 1026 1
3790 2644 1
2252 1538 1
2252 3190 1
775 2153 1
2583 1 1
2583 3074 1
2583 2566 1
2583 3073 1
2583 2 1
2583 1542 1
2583 1538 1
2583 3592 1
2583 3077 1
2583 1574 1
2583 3107 1
2583 3121 1
2583 516 1
2583 518 1
2583 2601 1
2583 1548 1
2583 1040 1
2583 2580 1
2583 2098 1
2583 528 1
2583 2598 1
2583 541 1
2583 522 1
2583 6 1
2583 1078 1
2583 2104 1
2583 2561 1
2583 3655 1
2583 2592 1
2583 1093 1
2583 3228 1
2583 2579 1
2583 1056 1
2583 3636 1
2583 3649 1
2583 540 1
3129 1574 1
3129 1621 1
3129 1079 1
3129 3199 1
3129 3219 1
3129 2696 1
3129 3585 1
3129 1044 1
3129 2060 1
3129 2561 1
3129 1101 1
3129 4 1
3129 1595 1
3677 1 1
3677 2050 1
3677 3586 1
3677 2610 1
3677 3665 1
3677 1028 1
3677 3589 1
3677 3239 1
3699 2564 1
3699 3097 1
3699 2568 1
3699 784 1
3699 1051 1
3699 2575 1
82 3586 1
82 3121 1
82 1025 1
82 2055 1
82 881 1
82 515 1
82 517 1
82 522 1
82 2056 1
2657 2 1
2657 2058 1
2657 78 1
2657 1025 1
2657 3585 1
2657 2052 1
2657 549 1
3706 1 1
3706 3586 1
3706 3653 1
3706 3158 1
3706 3623 1
2719 2049 1
2719 3598 1
2719 1027 1
2094 1 1
2094 1538 1
2094 3107 1
2094 521 1
2094 1539 1
2094 3633 1
2094 3601 1
2094 3631 1
2094 1033 1
2094 3606 1
2094 2570 1
2094 1038 1
2094 582 1
2094 2565 1
2094 1058 1
2094 2741 1
2094 3179 1
636 1030 1
636 3077 1
636 1055 1
636 2117 1
636 1065 1
3713 1 1
3713 2569 1
3713 1025 1
3713 1578 1
3713 1918 1
199 1582 1
199 2841 1
1798 14 1
1072 1 1
1072 3073 1
1072 2082 1
1072 3078 1
1072 1026 1
1072 1539 1
1072 513 1
1072 3106 1
1072 2162 1
1072 541 1
1072 2594 1
1072 2090 1
1072 257 1
1072 2579 1
2206 537 1
2206 2057 1
2206 1031 1
2206 1039 1
2140 2050 1
2140 3073 1
2140 2564 1
2140 3133 1
2140 1579 1
2140 2190 1
2140 2053 1
2140 3139 1
2149 3075 1
2149 1539 1
2149 2057 1
2149 1135 1
2149 517 1
2149 3626 1
2149 2089 1
2300 1082 1
2301 1679 1
3787 2050 1
3787 2170 1
2813 1031 1
2117 1 1
2117 2049 1
2117 1545 1
2117 516 1
2117 2564 1
2117 3637 1
2117 69 1
2117 2696 1
2117 532 1
2117 515 1
2117 2105 1
2117 33 1
3785 2049 1
3785 3339 1
2814 526 1
3826 1584 1
3827 598 1
3828 3590 1
193 3619 1
193 15 1
2806 3597 1
3823 1544 1
2203 3608 1
2203 3335 1
2203 1036 1
2203 2561 1
236 1546 1
756 2633 1
757 2109 1
1794 2588 1
1223 517 1
1223 1029 1
2809 2564 1
2577 1 1
2577 2050 1
2577 3074 1
2577 1542 1
2577 1541 1
2577 1538 1
2577 2572 1
2577 1537 1
2577 3075 1
2577 547 1
2577 3087 1
2577 1062 1
2577 3119 1
2577 5 1
2577 3080 1
2577 1049 1
2577 3105 1
2577 2083 1
2577 519 1
2577 2066 1
2577 3616 1
2577 42 1
2577 818 1
2577 3585 1
2577 3661 1
2577 33 1
2577 2333 1
2577 182 1
2577 3152 1
2577 2186 1
2577 2052 1
2577 2584 1
2577 1626 1
2577 1576 1
2577 3154 1
2577 1152 1
2577 2613 1
2577 857 1
2577 768 1
1073 1 1
1073 1646 1
1073 3606 1
1073 65 1
1073 3585 1
1073 2570 1
1073 2072 1
1073 2658 1
1073 2575 1
1073 1658 1
1073 3175 1
1073 928 1
1073 1589 1
1073 3139 1
3662 1 1
3662 2050 1
3662 514 1
3662 3595 1
3662 2582 1
3662 166 1
3662 3585 1
3662 1031 1
3662 816 1
3662 1572 1
126 1537 1
126 1026 1
126 557 1
126 1111 1
126 1038 1
58 1649 1
58 3599 1
58 1025 1
58 535 1
58 11 1
58 528 1
58 1862 1
58 3585 1
58 2570 1
58 3622 1
58 25 1
58 1656 1
58 2063 1
1158 534 1
1158 1040 1
1158 529 1
1158 1601 1
1158 2219 1
1230 3596 1
1230 91 1
3139 1 1
3139 2049 1
3139 3074 1
3139 3073 1
3139 1537 1
3139 3080 1
3139 2612 1
3139 3158 1
3139 33 1
3139 1036 1
3139 2721 1
3139 861 1
2221 1537 1
2221 91 1
2221 2608 1
1188 20 1
1188 2561 1
1188 545 1
3182 2 1
3182 2585 1
3182 1537 1
3182 1026 1
3182 522 1
3182 1047 1
1664 1 1
1664 1055 1
1664 3184 1
1664 216 1
1664 1032 1
765 3609 1
3116 1 1
3116 1542 1
3116 1073 1
3116 1564 1
3116 1551 1
3116 2059 1
3116 3659 1
3116 2055 1
3116 3094 1
3116 32 1
3116 2562 1
3116 50 1
3116 1100 1
3116 2584 1
3116 929 1
3116 3179 1
2215 2049 1
2215 1627 1
2215 2561 1
111 1546 1
111 513 1
111 2086 1
111 96 1
111 1100 1
111 776 1
3311 892 1
2207 2564 1
2207 2590 1
2207 1546 1
2207 3147 1
3246 2569 1
3246 3083 1
1283 2064 1
2718 513 1
2718 1662 1
2718 2597 1
2720 514 1
2720 1629 1
2720 1132 1
2302 1038 1
1099 1 1
1099 2049 1
1099 2571 1
1099 3 1
1099 1537 1
1099 2156 1
1099 3585 1
1099 23 1
1099 558 1
1099 1028 1
1737 3077 1
1737 3670 1
1166 3604 1
1166 2066 1
1166 1059 1
1166 6 1
1705 2571 1
1705 3102 1
1705 30 1
762 3114 1
763 7 1
2721 2050 1
2721 3073 1
2721 3587 1
2662 2 1
2662 2572 1
2662 5 1
2662 3082 1
2662 2142 1
2662 1032 1
2662 2592 1
1192 3608 1
1192 3615 1
1192 2052 1
1288 1546 1
2195 3077 1
2195 513 1
2195 3082 1
2195 2107 1
1801 3665 1
1800 889 1
1286 3229 1
3658 3592 1
3658 14 1
3658 1559 1
3658 2059 1
3658 2118 1
3658 3607 1
3658 2565 1
3658 1549 1
3658 3589 1
3658 1552 1
3658 2092 1
1674 2152 1
1674 2056 1
1674 3101 1
1674 1031 1
3830 1 1
668 1 1
668 1025 1
668 1042 1
3307 3074 1
2816 1544 1
1165 3075 1
1165 1559 1
1165 513 1
1165 262 1
2780 2572 1
2780 1649 1
2815 35 1
3811 14 1
3811 1187 1
1285 543 1
1704 2050 1
1704 1026 1
1704 3096 1
2772 2685 1
2772 1540 1
3277 3617 1
3277 93 1
3806 2564 1
3806 15 1
2818 3073 1
3219 2050 1
3219 3073 1
3219 2563 1
768 1 1
3280 1537 1
3280 3620 1
766 1063 1
2304 653 1
243 54 1
242 3656 1
241 1032 1
3308 1084 1
2817 3080 1
1780 3080 1
1780 1160 1
8 1 1
8 2050 1
8 2049 1
8 3073 1
8 1542 1
8 2571 1
8 3586 1
8 7 1
8 1545 1
8 1538 1
8 14 1
8 3100 1
8 3078 1
8 2671 1
8 1026 1
8 1062 1
8 521 1
8 543 1
8 3599 1
8 1548 1
8 3081 1
8 16 1
8 2589 1
8 3595 1
8 537 1
8 546 1
8 1025 1
8 1543 1
8 1567 1
8 1223 1
8 1655 1
8 2663 1
8 2622 1
8 2124 1
8 513 1
8 2055 1
8 2568 1
8 39 1
8 3598 1
8 2095 1
8 532 1
8 2151 1
8 2114 1
8 3096 1
8 1088 1
8 30 1
8 1244 1
8 56 1
8 3585 1
8 2637 1
8 2056 1
8 2194 1
8 3594 1
8 3123 1
8 121 1
8 73 1
8 1082 1
8 1037 1
8 1164 1
8 794 1
8 3099 1
8 3131 1
8 3272 1
8 2246 1
8 2216 1
8 37 1
8 612 1
8 2093 1
8 2682 1
8 2193 1
8 1031 1
8 1032 1
8 1028 1
8 29 1
8 1068 1
8 1632 1
8 2575 1
8 1639 1
8 1658 1
8 3092 1
8 711 1
8 2323 1
8 2647 1
8 2208 1
8 1064 1
8 9 1
8 950 1
8 3110 1
8 1216 1
8 1091 1
8 2269 1
8 3222 1
8 903 1
27 1 1
27 3074 1
27 2595 1
27 1538 1
27 3077 1
27 1564 1
27 86 1
27 518 1
27 2077 1
27 26 1
27 2054 1
27 28 1
27 1049 1
27 2094 1
27 1033 1
27 1094 1
27 3632 1
27 3076 1
27 3598 1
27 2057 1
27 3096 1
27 1088 1
27 10 1
27 3585 1
27 20 1
27 49 1
27 1199 1
27 2567 1
27 2184 1
27 963 1
27 2625 1
27 3114 1
27 1907 1
14 1 1
14 2050 1
14 3073 1
14 1542 1
14 3586 1
14 523 1
14 3107 1
14 516 1
14 2563 1
14 518 1
14 1548 1
14 2631 1
14 3588 1
14 81 1
14 3618 1
14 1657 1
14 3115 1
14 3664 1
14 513 1
14 11 1
14 3083 1
14 205 1
14 517 1
14 20 1
14 3594 1
14 1037 1
14 3099 1
14 1594 1
14 3590 1
14 1554 1
14 2097 1
14 15 1
14 2708 1
14 1182 1
14 2561 1
14 628 1
14 2112 1
14 2579 1
14 1540 1
14 540 1
14 696 1
3671 3074 1
3671 2571 1
3671 3586 1
3671 3 1
3671 514 1
3671 2563 1
3671 518 1
3671 1539 1
3671 515 1
1556 1 1
1556 2566 1
1556 3073 1
1556 2 1
1556 3586 1
1556 1545 1
1556 3079 1
1556 514 1
1556 3109 1
1556 2564 1
1556 2581 1
1556 2059 1
1556 53 1
1556 1041 1
1556 3081 1
1556 535 1
1556 2578 1
1556 2253 1
1556 520 1
1556 1198 1
1556 3585 1
1556 517 1
1556 20 1
1556 522 1
1556 1029 1
1556 51 1
1556 1061 1
1556 195 1
1556 527 1
1556 1623 1
1556 1114 1
1556 1031 1
1556 3093 1
1556 29 1
1556 3095 1
1556 1084 1
1556 3600 1
1556 2605 1
3156 1 1
3156 523 1
3156 1537 1
3156 3624 1
3156 2564 1
3156 2051 1
3156 1034 1
3156 2197 1
3156 1123 1
1128 1 1
1128 3108 1
1128 3097 1
1128 1539 1
1128 2593 1
1128 2094 1
1128 2076 1
3287 2069 1
3287 1555 1
3607 2049 1
3607 7 1
3607 533 1
3607 2082 1
3607 3084 1
3607 1537 1
3607 516 1
3607 2563 1
3607 1548 1
3607 1025 1
3607 2054 1
3607 1033 1
3607 3115 1
3607 513 1
3607 12 1
3607 2610 1
3607 3133 1
3607 557 1
3607 1034 1
3607 65 1
3607 515 1
3607 10 1
3607 2056 1
3607 3594 1
3607 924 1
3607 2611 1
3607 2561 1
3607 3605 1
3607 25 1
3607 1549 1
3607 1054 1
3607 3313 1
3607 832 1
3607 9 1
3607 3179 1
3607 1157 1
2653 1 1
2653 14 1
2653 5 1
2653 2075 1
2653 532 1
2653 1061 1
2653 1032 1
2653 1065 1
3676 1 1
3676 1652 1
3676 860 1
3676 2570 1
3676 2104 1
3676 2052 1
3676 1636 1
3676 865 1
155 531 1
155 3622 1
155 1028 1
2633 1 1
2633 2571 1
2633 1537 1
2633 1669 1
2633 1025 1
2633 3242 1
2633 2095 1
2633 517 1
2633 2587 1
2633 1971 1
1686 1 1
1686 3588 1
1686 2069 1
1686 1028 1
1141 516 1
1141 2077 1
1141 513 1
1141 1627 1
1141 13 1
1141 2089 1
2595 1 1
2595 2050 1
2595 3591 1
2595 27 1
2595 1538 1
2595 14 1
2595 1621 1
2595 1026 1
2595 3081 1
2595 1025 1
2595 2051 1
2595 1102 1
2595 1783 1
2595 1196 1
2595 3585 1
2595 2570 1
2595 20 1
2595 51 1
2595 6 1
2595 2071 1
2595 120 1
2595 3625 1
2595 3607 1
2595 2141 1
2595 1039 1
2595 3589 1
2595 2592 1
2595 2574 1
2595 1603 1
3741 2049 1
3741 2571 1
3741 97 1
3741 890 1
3148 1 1
3148 2050 1
3148 16 1
3148 546 1
3148 535 1
3148 2152 1
3148 1675 1
3148 1044 1
3148 2561 1
3148 141 1
3744 3096 1
3744 2599 1
3744 1028 1
564 1 1
564 3591 1
564 2571 1
564 3077 1
564 516 1
564 41 1
564 2589 1
564 3588 1
564 1033 1
564 2053 1
564 2215 1
564 2703 1
564 2561 1
564 982 1
737 3088 1
737 2567 1
105 533 1
105 518 1
105 2581 1
105 2669 1
105 2084 1
105 3246 1
2286 2049 1
2286 131 1
69 2050 1
69 3078 1
69 518 1
69 1651 1
69 2580 1
69 3076 1
69 2618 1
69 1625 1
69 1032 1
69 1065 1
69 2832 1
1699 2572 1
1699 3082 1
1699 2567 1
1781 3605 1
1781 1047 1
2284 199 1
2284 2561 1
3305 3079 1
3302 2577 1
28 1 1
28 2049 1
28 3074 1
28 38 1
28 3586 1
28 3592 1
28 3077 1
28 1537 1
28 3652 1
28 1025 1
28 2054 1
28 1691 1
28 2074 1
28 3105 1
28 1198 1
28 513 1
28 3083 1
28 3126 1
28 3585 1
28 524 1
28 1038 1
28 553 1
28 3657 1
28 6 1
28 3625 1
28 2053 1
28 2107 1
28 1197 1
28 2768 1
28 3095 1
28 3636 1
28 2089 1
562 1 1
562 2050 1
562 3591 1
562 1545 1
562 518 1
562 28 1
562 3588 1
562 2051 1
562 2578 1
562 2880 1
562 1618 1
562 3657 1
562 1031 1
562 2642 1
562 2182 1
3165 3586 1
3165 1541 1
3165 1048 1
3165 3109 1
3165 2580 1
3165 71 1
3165 3085 1
3165 1082 1
2808 536 1
2642 1 1
2642 3586 1
2642 7 1
2642 1026 1
2642 1062 1
2642 2634 1
2642 1049 1
2642 3593 1
2642 997 1
1777 1551 1
1777 2102 1
2278 2585 1
2278 3634 1
2131 1541 1
2131 543 1
2131 3097 1
2131 1562 1
2131 1059 1
2131 1578 1
2131 527 1
2131 3623 1
2131 3288 1
2672 3073 1
2672 2563 1
2672 1539 1
2672 3585 1
2672 2570 1
2672 2565 1
116 516 1
116 2601 1
116 2568 1
116 522 1
116 1639 1
2299 1681 1
2807 38 1
2805 2131 1
1795 2661 1
1629 2050 1
1629 3591 1
1629 7 1
1629 1548 1
1629 2094 1
1629 3136 1
1629 2868 1
1629 2575 1
3178 1 1
3178 3 1
3178 2054 1
3178 51 1
3178 2215 1
3178 1637 1
3188 3081 1
3188 3585 1
3188 3622 1
3188 21 1
3188 54 1
1779 7 1
1779 2064 1
239 1 1
238 1540 1
3829 1537 1
3306 2050 1
2812 1032 1
758 138 1
2810 2679 1
3088 1 1
3088 2050 1
3088 2049 1
3088 3591 1
3088 38 1
3088 3586 1
3088 1545 1
3088 1538 1
3088 2572 1
3088 1537 1
3088 3078 1
3088 526 1
3088 2077 1
3088 3595 1
3088 1025 1
3088 535 1
3088 2183 1
3088 3620 1
3088 2055 1
3088 32 1
3088 2596 1
3088 1562 1
3088 3148 1
3088 3126 1
3088 2573 1
3088 1029 1
3088 1808 1
3088 23 1
3088 2646 1
3088 1078 1
3088 527 1
3088 1725 1
3088 2583 1
3088 2592 1
3088 3092 1
3088 230 1
3088 1058 1
3088 1585 1
3088 3110 1
3088 3116 1
3088 110 1
75 3074 1
75 525 1
75 1539 1
75 2589 1
75 2632 1
75 513 1
75 70 1
75 1075 1
75 2561 1
75 2626 1
2623 1 1
2623 2049 1
2623 2 1
2623 3586 1
2623 2062 1
2623 2562 1
2623 10 1
2623 2080 1
2623 2206 1
2623 1634 1
2623 148 1
2623 2739 1
1693 2568 1
1693 2214 1
1693 827 1
1693 3610 1
2087 2049 1
2087 3074 1
2087 1053 1
2087 2058 1
2087 1026 1
2087 2569 1
2087 521 1
2087 5 1
2087 1025 1
2087 2593 1
2087 513 1
2087 3118 1
2087 3083 1
2087 85 1
2087 102 1
2087 3180 1
2087 122 1
2087 3268 1
2087 1540 1
2087 694 1
2087 1905 1
3796 3609 1
3796 1045 1
3797 539 1
3797 1641 1
1796 1034 1
2106 2050 1
2106 3108 1
2106 518 1
2106 2569 1
2106 2270 1
2106 2113 1
2106 55 1
2106 1103 1
2106 2065 1
2106 3150 1
2106 2576 1
2106 3276 1
2106 1032 1
2258 1537 1
2258 3589 1
1757 1541 1
1757 1571 1
2763 1239 1
2763 3585 1
2218 3640 1
2218 3152 1
2218 3643 1
1282 34 1
3266 546 1
3266 2667 1
3626 1 1
3626 2595 1
3626 2077 1
3626 2634 1
3626 28 1
3626 1033 1
3626 3104 1
3626 2098 1
3626 62 1
3626 2079 1
3626 3206 1
3626 3594 1
3626 72 1
3626 146 1
3626 2187 1
3626 3093 1
3626 2567 1
3626 1057 1
132 1 1
132 1029 1
132 1104 1
132 3298 1
3173 14 1
3173 1537 1
3173 520 1
3173 513 1
3173 3145 1
3173 517 1
3173 9 1
1281 2753 1
1703 2059 1
1703 3598 1
1703 6 1
760 520 1
759 2063 1
764 3585 1
1758 2080 1
1758 2726 1
1759 3283 1
1759 1060 1
157 7 1
157 2109 1
157 2592 1
252 1 1
37 3073 1
37 1542 1
37 2571 1
37 27 1
37 3077 1
37 3079 1
37 2671 1
37 2640 1
37 1539 1
37 1565 1
37 520 1
37 2067 1
37 71 1
37 2056 1
37 3596 1
37 3091 1
37 1054 1
37 47 1
37 1232 1
37 2111 1
3185 1 1
3185 1052 1
3185 2070 1
3185 520 1
3185 530 1
112 3591 1
112 2095 1
112 1168 1
112 3159 1
112 3587 1
112 3139 1
206 2603 1
206 1549 1
2254 3073 1
2254 2589 1
3261 1041 1
3261 1631 1
1172 2606 1
1172 521 1
1172 1565 1
1172 2672 1
1233 1040 1
1233 3623 1
3262 1537 1
3262 1025 1
2313 538 1
151 2056 1
151 1310 1
151 4 1
3839 1026 1
2256 1541 1
2256 11 1
652 2049 1
652 1539 1
652 513 1
652 2599 1
3838 522 1
3263 3073 1
3263 2561 1
3323 1 1
35 2050 1
35 3591 1
35 1542 1
35 3078 1
35 1544 1
35 1109 1
35 2054 1
35 28 1
35 531 1
35 3664 1
35 2696 1
35 532 1
35 524 1
35 2105 1
35 2053 1
35 1061 1
35 2141 1
35 2576 1
35 2641 1
35 1570 1
35 3589 1
35 2063 1
35 3191 1
35 564 1
35 713 1
2096 1 1
2096 2585 1
2096 523 1
2096 547 1
2096 1077 1
2096 3619 1
2096 3650 1
2096 3080 1
2096 2578 1
2096 12 1
2096 3120 1
2096 33 1
2096 188 1
2096 1570 1
2096 2579 1
3688 1030 1
3688 3073 1
3688 3078 1
3688 2588 1
3688 519 1
3688 2143 1
3688 3613 1
2821 1542 1
3651 1 1
3651 3 1
3651 514 1
3651 3086 1
3651 1544 1
3651 3633 1
3651 937 1
3651 3594 1
3651 3099 1
3651 542 1
3651 2061 1
3651 1240 1
3774 3077 1
3774 3213 1
3774 23 1
3186 1 1
3186 514 1
3186 2562 1
3186 2057 1
3186 3110 1
3271 2565 1
3271 1069 1
3126 1 1
3126 3604 1
3126 535 1
3126 46 1
3126 68 1
3126 2624 1
3126 1087 1
3126 2053 1
3126 1560 1
3126 2561 1
3126 1547 1
3126 1047 1
3126 832 1
3126 2827 1
2242 1539 1
2242 3612 1
2242 2561 1
3272 538 1
3272 2625 1
2317 1 1
2243 3591 1
2243 1537 1
2243 1638 1
2316 2064 1
2614 1 1
2614 1538 1
2614 3078 1
2614 518 1
2614 1025 1
2614 34 1
2614 2593 1
2614 8 1
2614 1027 1
2614 1633 1
2614 2056 1
2614 3613 1
2614 3110 1
210 2596 1
210 1589 1
649 2055 1
649 3585 1
649 1122 1
649 25 1
211 3094 1
211 2602 1
212 2669 1
212 1623 1
2737 1 1
2737 1538 1
2737 1640 1
1248 514 1
1248 2869 1
2315 1027 1
2192 1565 1
2192 1025 1
2192 3593 1
2192 2608 1
2736 2087 1
2736 3113 1
2736 2136 1
2314 9 1
774 2070 1
1247 1545 1
1247 2740 1
1812 2 1
2629 3591 1
2629 3073 1
2629 1026 1
2629 2569 1
2629 3119 1
2629 1025 1
2629 1033 1
2629 1094 1
2629 2076 1
2629 3589 1
2629 1067 1
2770 2676 1
2770 1632 1
3769 2050 1
3769 1543 1
3769 3612 1
1306 532 1
3171 2050 1
3171 1538 1
3171 14 1
3171 5 1
3171 2578 1
3171 2228 1
3171 522 1
1305 2053 1
2198 1 1
2198 519 1
2198 532 1
2198 2749 1
1304 2222 1
1303 513 1
118 2050 1
118 2049 1
118 1551 1
118 1025 1
118 3126 1
1301 6 1
1300 1054 1
777 1 1
253 518 1
1239 2053 1
1239 3610 1
1577 2585 1
1577 2058 1
1577 3121 1
1577 1026 1
1577 1544 1
1577 543 1
1577 1025 1
1577 1672 1
1577 1546 1
1577 3102 1
1577 2079 1
1577 23 1
1577 1036 1
1577 1721 1
1577 3247 1
1577 244 1
1577 1047 1
1577 2688 1
3726 3 1
3726 1046 1
3726 2561 1
3726 2149 1
2824 3075 1
1243 513 1
1243 515 1
1244 2562 1
1244 1597 1
3199 526 1
3199 3663 1
3199 1582 1
3199 9 1
2692 3078 1
2692 1026 1
2692 2122 1
2692 2085 1
3240 1542 1
3240 537 1
3240 57 1
2320 1 1
2319 2570 1
2734 1 1
2734 515 1
2734 3625 1
1811 1899 1
1792 3082 1
1298 3629 1
1207 2563 1
1207 2638 1
1207 1091 1
249 1 1
721 1538 1
721 530 1
1246 2762 1
1246 529 1
247 1682 1
3270 3595 1
3270 536 1
718 2049 1
718 1033 1
3835 2057 1
770 2625 1
34 1 1
34 3073 1
34 7 1
34 525 1
34 3592 1
34 1537 1
34 3615 1
34 1539 1
34 2059 1
34 3081 1
34 3588 1
34 520 1
34 3104 1
34 519 1
34 2562 1
34 1652 1
34 1029 1
34 1826 1
34 527 1
34 2154 1
34 188 1
34 1028 1
34 2644 1
34 1596 1
34 3593 1
34 3680 1
34 1123 1
1112 1541 1
1112 2656 1
1112 3087 1
1112 520 1
1112 1553 1
1112 216 1
1112 3585 1
1112 3594 1
1112 2561 1
67 1 1
67 2050 1
67 1539 1
67 700 1
67 30 1
67 2570 1
67 21 1
67 2576 1
67 2142 1
67 2060 1
67 2565 1
2726 2049 1
2726 1542 1
2726 2888 1
3112 1 1
3112 2571 1
3112 3586 1
3112 7 1
3112 1537 1
3112 3263 1
3112 5 1
3112 2051 1
3112 2115 1
3112 517 1
3112 935 1
3112 23 1
3112 1624 1
3112 3605 1
3112 3129 1
3112 115 1
3112 2088 1
3112 79 1
3112 1609 1
612 3086 1
612 518 1
612 3143 1
612 2125 1
612 1111 1
612 1556 1
612 3596 1
2205 2627 1
2205 62 1
2205 3585 1
2205 3639 1
1808 90 1
589 1030 1
589 3604 1
589 526 1
589 1551 1
589 1041 1
589 1033 1
589 513 1
589 1038 1
589 6 1
589 1540 1
3187 2571 1
3187 519 1
3187 3603 1
3187 528 1
3187 3114 1
2679 1 1
2679 2073 1
2679 1543 1
2679 3093 1
2679 3091 1
1296 3074 1
1145 2 1
1145 3650 1
1145 2098 1
1145 1063 1
1145 522 1
1295 35 1
3285 1 1
3285 535 1
773 2058 1
2660 3100 1
2660 518 1
2660 22 1
2660 3588 1
2660 2570 1
2660 21 1
2660 914 1
3698 1 1
3698 2 1
3698 2090 1
3698 2108 1
3698 2107 1
3698 1050 1
662 513 1
662 2704 1
662 2584 1
662 3610 1
3286 6 1
3286 1659 1
727 3631 1
727 1603 1
579 1 1
579 2049 1
579 1542 1
579 3586 1
579 3109 1
579 3650 1
579 2054 1
579 24 1
579 76 1
579 3585 1
579 2561 1
579 2227 1
3807 3080 1
3807 1080 1
3318 1102 1
3279 1659 1
3279 2561 1
2775 2593 1
2775 21 1
2089 1 1
2089 2 1
2089 3 1
2089 514 1
2089 3080 1
2089 1641 1
2089 3660 1
2089 3614 1
2089 1580 1
2089 33 1
2089 1588 1
2089 3099 1
2089 2148 1
2089 3590 1
2089 147 1
2089 1890 1
2089 1069 1
2089 3589 1
2089 874 1
2089 3179 1
626 3073 1
626 1139 1
626 1547 1
626 3605 1
626 2061 1
626 1181 1
2674 3073 1
2674 1538 1
2674 3611 1
2674 2561 1
2674 1550 1
3704 2070 1
3704 1037 1
3704 2690 1
3704 1552 1
3704 3137 1
3317 156 1
3316 1563 1
2711 22 1
2711 2144 1
2711 2637 1
2711 2616 1
3315 3609 1
2820 516 1
1199 2050 1
1199 125 1
1199 3101 1
1670 1094 1
1670 20 1
1670 2573 1
1670 1554 1
2273 3117 1
2273 2584 1
2785 1555 1
3694 2563 1
3694 3138 1
3694 3178 1
3694 3174 1
3694 2565 1
3694 3200 1
3694 2608 1
128 1030 1
128 1052 1
128 2676 1
128 2568 1
128 1065 1
3283 2091 1
3283 1032 1
725 1025 1
725 2629 1
679 3153 1
679 2055 1
679 2583 1
1271 1033 1
2789 3607 1
227 1080 1
1776 2570 1
1776 3643 1
2791 3082 1
146 38 1
146 3082 1
146 3585 1
146 1064 1
739 3192 1
3290 1 1
2790 1 1
224 2561 1
3815 2561 1
3210 3074 1
3210 111 1
3210 117 1
3210 2581 1
3190 1 1
3190 1539 1
3190 2054 1
3190 522 1
3190 2087 1
3223 3588 1
3223 3585 1
3223 2626 1
2223 1538 1
2223 536 1
2223 1061 1
1277 1623 1
752 2055 1
559 1030 1
559 2564 1
559 3076 1
559 50 1
559 76 1
559 89 1
559 1029 1
559 2561 1
559 2592 1
559 3095 1
559 1056 1
559 540 1
559 1585 1
559 934 1
559 1687 1
3733 2049 1
3733 513 1
3733 2060 1
3733 3589 1
143 1574 1
143 1025 1
143 1063 1
143 2143 1
2262 524 1
2262 2085 1
2663 2601 1
2663 1025 1
2663 517 1
2663 3099 1
2663 3629 1
2663 1031 1
750 2561 1
2725 2049 1
2725 210 1
2725 734 1
749 522 1
3672 3669 1
3672 1026 1
3672 1040 1
3672 24 1
3672 48 1
3672 2097 1
3672 2561 1
3672 2283 1
3672 9 1
233 2632 1
1788 674 1
3295 1 1
2802 1 1
674 1541 1
674 2600 1
674 35 1
2801 1631 1
2296 1538 1
203 3075 1
203 2767 1
2295 9 1
1790 2083 1
1279 3121 1
2180 2566 1
2180 3 1
2180 14 1
2180 2126 1
2180 515 1
1278 14 1
3297 3168 1
684 513 1
684 3660 1
684 1554 1
2804 3074 1
2803 148 1
2759 513 1
2759 1042 1
1720 3258 1
1720 541 1
1720 681 1
229 3122 1
3819 516 1
3293 1538 1
3292 2565 1
2794 3081 1
2793 2060 1
228 2054 1
1786 2563 1
1785 19 1
1784 515 1
1273 523 1
3761 1 1
3761 1651 1
3761 2111 1
743 2647 1
748 3073 1
3 1 1
3 2050 1
3 2049 1
3 3074 1
3 1030 1
3 3073 1
3 2 1
3 1541 1
3 7 1
3 2585 1
3 2103 1
3 533 1
3 2591 1
3 534 1
3 1537 1
3 3078 1
3 2563 1
3 3624 1
3 3615 1
3 3652 1
3 923 1
3 518 1
3 111 1
3 1026 1
3 2564 1
3 2569 1
3 1539 1
3 2073 1
3 2070 1
3 16 1
3 546 1
3 1207 1
3 3271 1
3 1025 1
3 3080 1
3 22 1
3 28 1
3 1055 1
3 2051 1
3 531 1
3 3601 1
3 2137 1
3 1033 1
3 520 1
3 2580 1
3 3286 1
3 1938 1
3 1071 1
3 2124 1
3 513 1
3 2055 1
3 2083 1
3 3094 1
3 2113 1
3 3106 1
3 3606 1
3 528 1
3 97 1
3 2057 1
3 536 1
3 2615 1
3 156 1
3 75 1
3 10 1
3 1042 1
3 3216 1
3 800 1
3 801 1
3 52 1
3 3585 1
3 2570 1
3 1156 1
3 1029 1
3 2056 1
3 3627 1
3 6 1
3 273 1
3 577 1
3 594 1
3 1560 1
3 763 1
3 1587 1
3 558 1
3 2246 1
3 15 1
3 1624 1
3 2127 1
3 2096 1
3 2747 1
3 2561 1
3 3587 1
3 1028 1
3 13 1
3 1608 1
3 2135 1
3 2052 1
3 1570 1
3 1060 1
3 3228 1
3 3308 1
3 4 1
3 2574 1
3 1550 1
3 863 1
3 3600 1
3 2817 1
3 2597 1
3 1607 1
3 3623 1
3 3610 1
3 3177 1
549 1 1
549 2566 1
549 3621 1
549 2572 1
549 1537 1
549 3624 1
549 86 1
549 2077 1
549 1026 1
549 3103 1
549 2070 1
549 3096 1
549 1088 1
549 100 1
549 3585 1
549 2673 1
549 1035 1
549 527 1
549 1547 1
549 530 1
549 3676 1
549 1166 1
549 2138 1
549 742 1
549 1540 1
549 1883 1
542 2050 1
542 2049 1
542 3073 1
542 2664 1
542 3586 1
542 1538 1
542 1564 1
542 1621 1
542 3615 1
542 1559 1
542 2070 1
542 2662 1
542 34 1
542 1543 1
542 3588 1
542 113 1
542 1568 1
542 522 1
542 2056 1
542 3596 1
542 2053 1
542 3099 1
542 2141 1
542 1031 1
542 1032 1
542 1028 1
542 3613 1
542 3654 1
542 2837 1
542 3630 1
542 2577 1
542 2670 1
3663 1 1
3663 3073 1
3663 2051 1
3663 2256 1
3663 3133 1
3663 515 1
3663 3585 1
3663 1622 1
3663 3180 1
3663 2565 1
547 2050 1
547 2049 1
547 3586 1
547 1541 1
547 1538 1
547 2591 1
547 3084 1
547 516 1
547 3086 1
547 3624 1
547 2562 1
547 1641 1
547 3168 1
547 528 1
547 936 1
547 793 1
547 2594 1
547 3644 1
547 1134 1
547 2561 1
547 1547 1
547 1060 1
547 3092 1
547 1596 1
547 2826 1
547 2840 1
547 1232 1
547 1179 1
3640 1538 1
3640 1551 1
3640 3122 1
3640 1543 1
3640 2146 1
3640 1029 1
3640 1059 1
3640 6 1
3640 2142 1
3640 3180 1
3640 2093 1
3640 29 1
3640 3098 1
3640 1552 1
2095 3586 1
2095 534 1
2095 2572 1
2095 1026 1
2095 1025 1
2095 3080 1
2095 1255 1
2095 2648 1
2095 513 1
2095 2562 1
2095 522 1
2095 1563 1
2095 2104 1
2095 2561 1
2095 3092 1
2095 3154 1
1684 2562 1
1684 2561 1
1684 141 1
1684 1200 1
3600 1 1
3600 2050 1
3600 3074 1
3600 2566 1
3600 2 1
3600 3 1
3600 1538 1
3600 523 1
3600 1537 1
3600 3087 1
3600 1026 1
3600 1539 1
3600 2059 1
3600 5 1
3600 3677 1
3600 1025 1
3600 1055 1
3600 1033 1
3600 513 1
3600 3082 1
3600 2562 1
3600 1160 1
3600 48 1
3600 3134 1
3600 2167 1
3600 1633 1
3600 906 1
3600 541 1
3600 2090 1
3600 3140 1
3600 2154 1
3600 2093 1
3600 132 1
3600 2561 1
3600 1031 1
3600 3587 1
3600 2626 1
3600 109 1
3600 3643 1
3600 1054 1
588 516 1
588 5 1
588 3640 1
588 3082 1
588 1027 1
588 3083 1
588 1633 1
588 2117 1
588 3112 1
588 886 1
1592 2050 1
1592 1538 1
1592 1537 1
1592 547 1
1592 3652 1
1592 3149 1
1592 2588 1
1592 2693 1
1592 3083 1
1592 1629 1
1592 1661 1
1592 1092 1
1592 2604 1
2270 3073 1
2270 27 1
3146 3073 1
3146 3592 1
3146 2569 1
3146 531 1
3146 520 1
3146 2603 1
3146 517 1
3146 1029 1
3146 552 1
3146 3091 1
3146 1143 1
2167 3608 1
2167 1138 1
2167 3679 1
2167 960 1
2167 2677 1
2167 60 1
136 1537 1
136 3624 1
136 541 1
136 2219 1
1061 2049 1
1061 3074 1
1061 1538 1
1061 514 1
1061 1025 1
1061 2051 1
1061 531 1
1061 520 1
1061 2632 1
1061 684 1
1061 1641 1
1061 1111 1
1061 2120 1
1061 2594 1
1061 3111 1
1061 3117 1
1061 2127 1
1061 545 1
1061 3091 1
1061 1039 1
1061 2161 1
1061 3212 1
1061 1124 1
1061 3668 1
1061 3221 1
3135 1 1
3135 1538 1
3135 523 1
3135 2564 1
3135 5 1
3135 2593 1
3135 2562 1
3135 2783 1
3135 2598 1
3135 3111 1
3135 2130 1
3135 939 1
3650 3 1
3650 1545 1
3650 1025 1
3650 3637 1
3650 24 1
3650 513 1
3650 1212 1
3650 605 1
3650 1061 1
3650 2063 1
3650 1658 1
3650 3095 1
682 46 1
682 2562 1
682 1594 1
2102 2049 1
2102 1030 1
2102 2571 1
2102 3077 1
2102 1537 1
2102 3078 1
2102 3075 1
2102 2601 1
2102 69 1
2102 70 1
2102 3585 1
2102 1050 1
2102 2600 1
2102 1241 1
2795 1547 1
1205 2050 1
1205 516 1
1205 3587 1
2124 1 1
2124 1559 1
2124 1026 1
2124 1062 1
2124 1539 1
2124 3618 1
2124 39 1
2124 75 1
2124 3144 1
2124 2128 1
1665 1 1
1665 3080 1
1665 1543 1
1665 1562 1
1665 158 1
2697 1 1
2697 1541 1
2697 1546 1
2697 2594 1
729 2563 1
729 1560 1
3232 3586 1
3232 513 1
3232 1045 1
1787 520 1
2590 2049 1
2590 1541 1
2590 2572 1
2590 1537 1
2590 514 1
2590 518 1
2590 1026 1
2590 2564 1
2590 521 1
2590 1539 1
2590 2581 1
2590 3599 1
2590 1025 1
2590 1055 1
2590 1043 1
2590 3618 1
2590 2562 1
2590 2570 1
2590 57 1
2590 3182 1
2590 558 1
2590 1663 1
2590 195 1
2590 2561 1
2590 1031 1
2590 2084 1
2590 3626 1
2590 3095 1
2590 3600 1
2590 3636 1
2590 9 1
2590 2642 1
1611 2050 1
1611 3074 1
1611 3617 1
1611 3586 1
1611 2563 1
1611 3603 1
1611 2725 1
1611 3585 1
1611 1557 1
1611 1031 1
1088 2566 1
1088 2 1
1088 1217 1
1088 3588 1
1088 2051 1
1088 1553 1
1088 860 1
1088 1861 1
1088 3609 1
1088 1036 1
1088 1957 1
1088 1276 1
2292 3131 1
3159 1 1
3159 2050 1
3159 1537 1
3159 3081 1
3159 2054 1
3159 535 1
3159 1087 1
3159 1029 1
3159 530 1
2276 1562 1
2276 106 1
654 3075 1
654 1548 1
654 3090 1
654 524 1
3275 2055 1
3275 1552 1
1067 1 1
1067 525 1
1067 1077 1
1067 5 1
1067 3122 1
1067 1546 1
1067 1040 1
1067 1033 1
1067 50 1
1067 517 1
1067 2586 1
1067 2056 1
1067 6 1
1067 2864 1
1067 2565 1
1067 3116 1
1127 1 1
1127 2050 1
1127 2125 1
1127 513 1
1127 3678 1
1127 1031 1
1127 567 1
1127 3252 1
3683 1 1
3683 3245 1
3683 3598 1
3683 2174 1
3683 37 1
3683 1050 1
3683 3674 1
3683 1064 1
170 1026 1
170 1562 1
170 3614 1
3820 1543 1
230 3606 1
586 1 1
586 1537 1
586 3086 1
586 3671 1
586 3200 1
586 3175 1
586 4 1
586 2577 1
586 3636 1
586 2705 1
586 834 1
638 1 1
638 3074 1
638 1538 1
638 3081 1
638 3096 1
232 1542 1
1157 3077 1
1157 1025 1
1157 1674 1
1157 3101 1
1157 749 1
3231 525 1
3231 521 1
3231 2589 1
3230 3587 1
3230 1028 1
3230 1605 1
1275 2098 1
1276 1539 1
2291 3 1
1548 3074 1
1548 3073 1
1548 1053 1
1548 3079 1
1548 1574 1
1548 1551 1
1548 2059 1
1548 16 1
1548 41 1
1548 2051 1
1548 2617 1
1548 2663 1
1548 648 1
1548 513 1
1548 2066 1
1548 96 1
1548 2064 1
1548 1777 1
1548 1103 1
1548 3088 1
1548 2791 1
1548 2570 1
1548 2072 1
1548 1029 1
1548 3657 1
1548 3594 1
1548 3136 1
1548 1035 1
1548 2887 1
1548 695 1
1548 1624 1
1548 1032 1
1548 3093 1
1548 1549 1
1548 1143 1
1548 19 1
1548 1550 1
1548 3593 1
1548 538 1
1548 2668 1
1548 3314 1
1548 149 1
1548 3165 1
1548 1256 1
1548 540 1
1548 1205 1
3649 1 1
3649 2049 1
3649 1537 1
3649 3075 1
3649 1025 1
3649 1646 1
3649 513 1
3649 2060 1
3649 2583 1
3649 999 1
3649 642 1
3649 3188 1
3661 1 1
3661 2563 1
3661 2077 1
3661 1025 1
3661 2593 1
3661 513 1
3661 2071 1
3661 3594 1
3661 1219 1
3661 2102 1
3661 835 1
3228 3073 1
3228 1072 1
3228 3658 1
2090 3074 1
2090 3073 1
2090 3586 1
2090 1537 1
2090 1543 1
2090 3637 1
2090 520 1
2090 2562 1
2090 18 1
2090 1563 1
2090 2056 1
2090 6 1
2090 1195 1
2090 1114 1
2090 733 1
2090 2567 1
2090 1050 1
2090 3092 1
2090 3160 1
1668 1026 1
1668 2054 1
1668 513 1
1668 3585 1
2782 3168 1
2782 3593 1
2616 2058 1
2616 516 1
2616 2129 1
2616 2774 1
2616 2057 1
2616 1029 1
2616 3666 1
2616 1069 1
2616 83 1
2616 94 1
2616 2102 1
2616 126 1
2616 888 1
1163 41 1
1163 1046 1
1163 1092 1
1163 1585 1
1111 3586 1
1111 514 1
1111 1566 1
1111 2086 1
1111 3125 1
1111 2576 1
1111 3587 1
1111 3638 1
1111 540 1
1673 2 1
1673 49 1
1673 2655 1
1673 1181 1
135 3079 1
135 2564 1
135 543 1
135 1050 1
732 1026 1
732 2056 1
2641 1 1
2641 7 1
2641 518 1
2641 2589 1
2641 24 1
2641 3606 1
2641 3585 1
2641 1560 1
2641 3132 1
686 2054 1
686 1550 1
686 1591 1
1261 3088 1
1261 3614 1
734 2578 1
734 3647 1
1649 3592 1
1649 3149 1
1649 2054 1
1649 819 1
1649 517 1
1649 45 1
3763 1537 1
3763 3075 1
3763 2568 1
2282 536 1
2282 194 1
1206 1 1
1206 2049 1
1206 3073 1
745 1556 1
3723 2569 1
3723 3093 1
3723 2088 1
3723 246 1
2798 1537 1
2602 1 1
2602 523 1
2602 1026 1
2602 543 1
2602 3588 1
2602 1648 1
2602 2051 1
2602 3115 1
2602 2113 1
2602 2596 1
2602 1027 1
2602 2056 1
2602 1580 1
2602 2053 1
2602 102 1
2602 3195 1
2602 1624 1
1789 3080 1
1631 3109 1
1631 3075 1
1631 520 1
1631 3082 1
1631 2658 1
1631 2561 1
1631 2602 1
3296 3590 1
2689 1 1
2689 526 1
2689 3083 1
2689 3602 1
2689 2659 1
3798 1541 1
3798 525 1
3822 516 1
125 2050 1
125 1545 1
125 1048 1
125 28 1
125 1547 1
2168 3595 1
2168 3677 1
2168 520 1
2168 31 1
2168 3167 1
2168 1080 1
639 3588 1
639 75 1
639 1037 1
639 2567 1
639 2052 1
755 2050 1
3821 518 1
712 1030 1
712 1550 1
2799 33 1
33 2050 1
33 1030 1
33 3073 1
33 2595 1
33 1538 1
33 3084 1
33 1537 1
33 26 1
33 1026 1
33 1539 1
33 3081 1
33 2609 1
33 1025 1
33 2094 1
33 2069 1
33 2568 1
33 2562 1
33 2144 1
33 536 1
33 3182 1
33 1031 1
33 3176 1
33 529 1
33 3129 1
33 3203 1
33 3593 1
33 2577 1
33 133 1
33 58 1
1612 1 1
1612 3586 1
1612 1565 1
1612 34 1
1612 1555 1
1612 2678 1
1612 3227 1
1612 2561 1
1612 2565 1
1612 4 1
3147 3586 1
3147 3084 1
3147 514 1
3147 3108 1
3147 2640 1
3147 2173 1
3147 2075 1
3147 3082 1
3147 515 1
3147 823 1
3147 2794 1
673 1 1
673 2609 1
673 3662 1
1080 2049 1
1080 3591 1
1080 3586 1
1080 1537 1
1080 113 1
1080 513 1
1080 3616 1
1080 2603 1
1080 2057 1
1080 1042 1
1080 3128 1
1080 2189 1
1080 1152 1
3212 1209 1
3212 8 1
3212 1237 1
3212 3593 1
127 3074 1
127 1055 1
127 1113 1
127 807 1
127 2061 1
163 2050 1
163 1537 1
163 2115 1
2135 1 1
2135 1026 1
2135 24 1
2135 3616 1
2135 1034 1
2135 1059 1
2135 814 1
2135 3111 1
2135 3628 1
2665 2564 1
2665 517 1
2665 575 1
2665 1031 1
2665 1189 1
2665 3098 1
3801 1130 1
3801 3085 1
3754 3074 1
3754 1651 1
3754 29 1
3224 1538 1
3224 523 1
3224 59 1
754 2617 1
3192 2050 1
3192 523 1
3192 1543 1
3192 2214 1
3192 3587 1
1064 1 1
1064 2049 1
1064 2566 1
1064 3073 1
1064 523 1
1064 1052 1
1064 26 1
1064 1033 1
1064 143 1
1064 522 1
1064 51 1
1064 3141 1
1064 2053 1
1064 3590 1
1064 66 1
1064 1570 1
1064 2577 1
1064 3635 1
1709 3073 1
1709 3609 1
1709 40 1
1177 1537 1
1177 3081 1
1177 2055 1
1177 3082 1
3300 518 1
104 2606 1
104 3143 1
104 1026 1
104 1027 1
104 1032 1
104 542 1
1270 3074 1
3735 55 1
3735 1160 1
3735 125 1
3735 2084 1
3800 5 1
3800 3098 1
3289 3080 1
145 2569 1
145 2627 1
145 3620 1
145 579 1
223 3081 1
2756 2062 1
2756 2561 1
2634 1030 1
2634 2062 1
2634 3108 1
2634 2640 1
2634 3588 1
2634 3601 1
2634 2134 1
2634 2562 1
2634 3096 1
2634 1067 1
733 1545 1
733 122 1
1175 1946 1
1175 513 1
1175 10 1
1175 1557 1
2704 3194 1
2704 6 1
2704 3140 1
2704 1125 1
225 29 1
147 1030 1
147 32 1
147 594 1
147 3146 1
2709 14 1
2709 3640 1
2709 3094 1
2709 2053 1
2271 2057 1
2271 177 1
778 3618 1
2728 41 1
2728 1025 1
2728 3640 1
1292 555 1
1807 3081 1
1695 2050 1
1695 1541 1
1695 1073 1
1695 2564 1
3320 11 1
250 2075 1
1641 3073 1
1641 1544 1
1641 1025 1
1641 2568 1
1641 2602 1
1641 2577 1
2281 522 1
2281 2052 1
2310 174 1
3832 3079 1
245 2091 1
1290 1197 1
2308 3668 1
2681 1025 1
2681 87 1
2681 3088 1
2681 3085 1
2681 1175 1
2241 1026 1
2241 2113 1
2241 1044 1
3312 80 1
2819 3586 1
3314 2563 1
1694 2074 1
1694 3587 1
1694 3630 1
1694 2771 1
214 1029 1
214 3589 1
1208 3586 1
1208 534 1
1208 1143 1
246 1042 1
2235 3 1
2235 1537 1
2235 2138 1
248 2072 1
3319 3135 1
1148 3074 1
1148 3624 1
1148 2564 1
1148 1543 1
1148 724 1
2823 47 1
3325 2564 1
3842 2049 1
208 2062 1
208 513 1
1560 1 1
1560 3586 1
1560 1538 1
1560 1073 1
1560 3075 1
1560 526 1
1560 2563 1
1560 1026 1
1560 1041 1
1560 3157 1
1560 2076 1
1560 2568 1
1560 3603 1
1560 11 1
1560 3096 1
1560 1666 1
1560 2615 1
1560 1797 1
1560 10 1
1560 1555 1
1560 1612 1
1560 2079 1
1560 3113 1
1560 2655 1
1560 2141 1
1560 2216 1
1560 1028 1
1560 1039 1
1560 2052 1
1560 3626 1
1560 2740 1
1560 806 1
1560 2231 1
1560 1540 1
1560 871 1
46 1 1
46 3074 1
46 2566 1
46 3073 1
46 1538 1
46 3079 1
46 3081 1
46 3194 1
46 1025 1
46 2074 1
46 3242 1
46 2055 1
46 3083 1
46 2071 1
46 3172 1
1581 1 1
1581 2049 1
1581 3074 1
1581 2082 1
1581 3588 1
1581 535 1
1581 513 1
1581 3118 1
1581 1036 1
1581 3197 1
1581 2161 1
1581 2217 1
1581 2763 1
1581 2208 1
1581 108 1
1753 3127 1
1753 1139 1
65 3591 1
65 3074 1
65 1541 1
65 3 1
65 1538 1
65 3086 1
65 1026 1
65 53 1
65 3105 1
65 513 1
65 2573 1
65 2616 1
1119 1 1
1119 3586 1
1119 2563 1
1119 1546 1
1119 3204 1
1119 3076 1
1119 3602 1
1119 1540 1
1119 683 1
153 3 1
153 3150 1
153 1066 1
2125 86 1
2125 1559 1
2125 520 1
2125 2074 1
2125 1643 1
2125 32 1
2125 2732 1
2125 2168 1
2125 13 1
2125 2272 1
1655 3 1
1655 2077 1
1655 3082 1
1655 517 1
1655 37 1
2698 1539 1
2698 2095 1
2698 2561 1
2698 9 1
156 1561 1
156 145 1
156 2561 1
776 716 1
68 3591 1
68 1660 1
68 522 1
68 1557 1
68 1130 1
68 1617 1
68 2587 1
68 527 1
68 2127 1
68 3260 1
68 2128 1
1756 1 1
1756 2083 1
3274 1537 1
3274 1025 1
3264 3073 1
3264 1552 1
629 1 1
629 3586 1
629 2569 1
629 8 1
629 3091 1
629 2063 1
3288 3074 1
3288 1538 1
2305 1537 1
2220 1025 1
2220 1033 1
2220 536 1
616 2050 1
616 2049 1
616 3075 1
616 2621 1
616 1027 1
616 2057 1
616 6 1
154 3078 1
154 3081 1
154 1569 1
1125 1 1
1125 12 1
1125 2087 1
1125 121 1
1125 33 1
1125 2068 1
1125 2584 1
1125 2089 1
3732 3608 1
3732 1537 1
3732 2054 1
3732 64 1
2202 2091 1
2202 1537 1
2202 1539 1
2202 1040 1
1265 1 1
1265 3636 1
643 1 1
643 2050 1
643 3592 1
643 2572 1
643 2569 1
1769 2561 1
1769 3139 1
3309 2683 1
3310 2569 1
2776 514 1
2776 3098 1
1142 3073 1
1142 3109 1
1142 3088 1
1142 3589 1
1142 2061 1
1142 852 1
244 3073 1
767 2708 1
2774 2562 1
2774 43 1
1805 1654 1
2307 518 1
240 3586 1
596 2049 1
596 3586 1
596 3084 1
596 1026 1
596 8 1
596 528 1
596 517 1
596 3644 1
596 1615 1
2155 2563 1
2155 3105 1
2155 528 1
2155 1610 1
2155 1045 1
2155 3589 1
2155 3654 1
2688 1 1
2688 3173 1
2688 2565 1
2688 2592 1
2688 3597 1
761 1077 1
1773 3073 1
1773 1051 1
1287 1035 1
728 513 1
728 70 1
1802 1547 1
2194 1537 1
2194 1071 1
2194 3585 1
2194 3594 1
2777 3608 1
2777 2302 1
1804 2 1
1803 1695 1
694 66 1
694 3670 1
2181 3077 1
2181 2210 1
2181 2562 1
2181 3614 1
2181 541 1
698 2572 1
698 3585 1
2303 2569 1
1799 24 1
1284 2565 1
1289 1106 1
3831 2049 1
3304 1086 1
3303 2081 1
667 1 1
667 3073 1
667 1538 1
195 2086 1
195 2089 1
1280 3104 1
235 3145 1
3301 3 1
1742 515 1
1742 2584 1
2298 1 1
2752 1030 1
2752 2564 1
2750 3084 1
2750 1150 1
3840 1027 1
2822 3640 1
1297 2569 1
55 2 1
55 1542 1
55 3077 1
55 547 1
55 1653 1
55 700 1
55 2065 1
55 1855 1
55 1563 1
55 1583 1
55 1945 1
55 3593 1
55 2796 1
1680 2569 1
1680 3598 1
1680 76 1
1680 2567 1
617 2049 1
617 3074 1
617 7 1
617 3081 1
617 2561 1
617 2604 1
617 972 1
3836 2566 1
3739 1 1
3739 3078 1
3739 2569 1
3739 3636 1
200 2591 1
200 3611 1
1696 3633 1
1696 2057 1
1696 2650 1
1696 619 1
196 2563 1
196 2597 1
3254 3591 1
3254 1033 1
769 3602 1
3189 3591 1
3189 1538 1
3189 1073 1
3189 22 1
3189 2580 1
2748 3073 1
2748 3077 1
3321 2566 1
2311 2103 1
3818 1 1
1226 2563 1
1226 3106 1
2787 1551 1
1783 1567 1
3791 1 1
3791 2055 1
741 2049 1
3298 2610 1
1855 2103 1
1852 2188 1
172 1 1
172 3614 1
172 1584 1
166 2563 1
166 11 1
166 1120 1
164 3621 1
164 2057 1
164 515 1
3372 2597 1
820 4 1
2250 2098 1
2250 2066 1
3880 1047 1
2866 3622 1
1848 521 1
2358 3623 1
300 2583 1
1856 2568 1
301 3074 1
2360 2051 1
815 2055 1
525 3591 1
525 3074 1
525 3073 1
525 3586 1
525 1538 1
525 3077 1
525 1052 1
525 3075 1
525 1026 1
525 2059 1
525 2653 1
525 34 1
525 3618 1
525 2578 1
525 1566 1
525 24 1
525 2075 1
525 513 1
525 1046 1
525 2562 1
525 2057 1
525 1034 1
525 3226 1
525 3134 1
525 515 1
525 1042 1
525 1760 1
525 3585 1
525 1563 1
525 1059 1
525 112 1
525 2679 1
525 2628 1
525 3131 1
525 2561 1
525 3587 1
525 545 1
525 3142 1
525 3613 1
525 88 1
525 2291 1
525 2202 1
525 1837 1
1095 1 1
1095 2572 1
1095 1559 1
1095 2059 1
1095 2051 1
1095 1546 1
1095 18 1
1095 1547 1
1095 1051 1
1095 1069 1
1095 2303 1
2100 1 1
2100 3 1
2100 1564 1
2100 518 1
2100 3081 1
2100 3595 1
2100 1546 1
2100 513 1
2100 1046 1
2100 2169 1
2100 71 1
2100 3594 1
2100 2085 1
2100 1597 1
1161 1537 1
1161 3075 1
1161 116 1
1161 2200 1
1161 1050 1
3214 3592 1
3214 3103 1
3214 2057 1
3214 1560 1
2229 534 1
2229 3585 1
2229 3593 1
821 2590 1
168 2571 1
168 3599 1
168 169 1
606 2049 1
606 3174 1
606 1034 1
606 2594 1
606 3630 1
606 3634 1
606 538 1
606 43 1
3759 2571 1
3759 519 1
3759 2123 1
677 34 1
677 1029 1
677 2561 1
291 2066 1
676 3074 1
676 513 1
676 3605 1
2643 3079 1
2643 3107 1
2643 1537 1
2643 1551 1
2643 521 1
2643 2075 1
2643 11 1
2643 3585 1
2643 1032 1
702 1033 1
702 1583 1
1741 1544 1
1741 1594 1
2166 7 1
2166 1537 1
2166 2059 1
2166 3673 1
2166 2565 1
2166 3638 1
194 2050 1
194 3177 1
1657 1103 1
1657 2154 1
1657 2567 1
1657 1570 1
1657 1178 1
293 98 1
1348 1551 1
1154 1 1
1154 2049 1
1154 1041 1
1154 1031 1
1154 1066 1
1576 2049 1
1576 3073 1
1576 523 1
1576 2059 1
1576 2073 1
1576 1041 1
1576 1025 1
1576 87 1
1576 2580 1
1576 3233 1
1576 1196 1
1576 33 1
1576 1547 1
1576 1086 1
1576 1140 1
1576 2180 1
1576 1056 1
1576 2157 1
1576 693 1
123 1537 1
123 2643 1
123 2247 1
123 2785 1
123 35 1
2741 3586 1
2741 1026 1
2741 524 1
1659 3074 1
1659 3615 1
1659 1555 1
1659 2179 1
1659 3237 1
290 529 1
1351 3074 1
2867 2569 1
663 1 1
663 3100 1
663 3075 1
663 30 1
3884 2050 1
2359 2581 1
3879 3077 1
3181 1 1
3181 1025 1
3181 2137 1
3181 2122 1
3181 771 1
3181 3665 1
3792 1542 1
3792 2074 1
2191 2069 1
2191 3082 1
2191 2056 1
2191 2665 1
3886 3615 1
818 2580 1
296 3591 1
3664 2050 1
3664 3586 1
3664 2572 1
3664 1551 1
3664 2569 1
3664 1539 1
3664 5 1
3664 2610 1
3664 3106 1
3664 2162 1
3235 3586 1
3235 1590 1
3235 1027 1
3207 2049 1
3207 3604 1
3207 1539 1
3207 3601 1
3770 3592 1
3770 3614 1
3770 2684 1
650 1538 1
650 3084 1
650 1026 1
650 1108 1
1730 1542 1
1730 2074 1
1730 1549 1
3882 3587 1
3878 3609 1
3778 3617 1
3778 1648 1
2863 1034 1
2874 1538 1
669 1538 1
669 1645 1
669 946 1
1350 2195 1
3751 1 1
3751 518 1
3751 529 1
2754 1 1
2754 1026 1
705 1085 1
705 3600 1
3749 1548 1
3749 2730 1
3749 1556 1
284 513 1
1851 1026 1
2749 2783 1
2749 1555 1
302 2568 1
3343 1543 1
3137 3073 1
3137 516 1
3137 2588 1
3137 1544 1
3137 17 1
3137 3585 1
3137 517 1
3137 3609 1
3137 3172 1
3137 2061 1
3137 1595 1
3137 3151 1
150 3591 1
150 3586 1
150 3592 1
150 3082 1
3184 534 1
3184 2058 1
3184 2070 1
3184 3588 1
3184 2622 1
1160 1551 1
1160 1026 1
1160 3142 1
1160 3589 1
1160 3593 1
1822 518 1
707 1030 1
707 1063 1
3716 1 1
3716 2563 1
3716 3076 1
3716 2582 1
3716 2052 1
2335 2618 1
1227 3077 1
1227 2153 1
1745 3590 1
1745 1032 1
1317 2057 1
149 1 1
149 3074 1
149 3641 1
149 1104 1
3257 2062 1
3257 40 1
1750 2049 1
1750 1027 1
3853 3099 1
1319 2060 1
1258 513 1
1258 2575 1
1324 1062 1
2274 3592 1
2274 3593 1
264 1548 1
3863 1544 1
265 2630 1
266 1538 1
1767 3585 1
1767 3610 1
3278 3594 1
3278 2575 1
1825 2592 1
3857 3586 1
1173 2571 1
1173 514 1
1173 1833 1
1173 3076 1
1322 3118 1
1323 1 1
1824 1042 1
1269 3074 1
1269 2699 1
2783 3073 1
2783 2051 1
3346 3586 1
1826 1546 1
2842 3 1
3858 6 1
3331 48 1
782 2078 1
779 522 1
2761 2081 1
2761 2181 1
3328 1568 1
3120 3586 1
3120 3153 1
3120 3075 1
3120 95 1
3120 1026 1
3120 2631 1
3120 28 1
3120 2126 1
3120 515 1
3120 1196 1
3120 3163 1
3120 6 1
3120 3136 1
3120 2068 1
3120 782 1
3728 38 1
3728 1026 1
3728 2059 1
3728 3088 1
3844 1537 1
633 1 1
633 1621 1
633 87 1
633 1027 1
633 1547 1
87 1 1
87 1542 1
87 1541 1
87 514 1
87 3143 1
87 2562 1
87 2573 1
87 3639 1
87 3613 1
785 1579 1
786 3075 1
1315 3136 1
3794 2049 1
3794 3629 1
3795 2050 1
3795 1079 1
783 518 1
691 1025 1
691 3678 1
691 2570 1
3335 3091 1
1676 1033 1
1676 1911 1
1676 1934 1
1676 3589 1
3803 2078 1
3803 1585 1
3336 3141 1
3846 18 1
3847 3119 1
257 514 1
1640 1030 1
1640 1026 1
1640 2568 1
1640 3585 1
1640 3612 1
1640 3590 1
1640 1058 1
723 1537 1
723 127 1
1250 3604 1
1250 3098 1
3341 2572 1
3268 1 1
3268 3080 1
806 2079 1
807 513 1
1336 2056 1
2349 3076 1
1146 2650 1
1146 550 1
1146 3287 1
1146 2565 1
1146 538 1
275 2790 1
276 1538 1
2285 1545 1
2285 3624 1
1339 1068 1
3877 1537 1
3809 1645 1
3809 2124 1
1200 1 1
1200 526 1
1200 3098 1
1345 536 1
672 3073 1
672 2159 1
672 2741 1
809 1061 1
3367 1960 1
3875 10 1
2354 3075 1
3719 1 1
3719 3074 1
3719 3103 1
3719 30 1
3719 57 1
2849 7 1
1326 521 1
2343 2586 1
3804 3138 1
3804 2578 1
2758 3104 1
2758 2567 1
3356 3622 1
795 3622 1
802 2563 1
2347 516 1
3362 3603 1
3360 3073 1
3866 2156 1
2847 1026 1
3366 2050 1
1843 3597 1
1335 3082 1
3340 2678 1
2835 519 1
