%%MatrixMarket matrix coordinate real general
%
4096 4096 28666
1 2 1
1 3 1
1 4 1
1 5 1
1 6 1
1 7 1
1 8 1
1 9 1
1 10 1
1 11 1
1 12 1
1 13 1
1 15 1
1 17 1
1 18 1
1 19 1
1 20 1
1 21 1
1 22 1
1 25 1
1 26 1
1 27 1
1 29 1
1 30 1
1 31 1
1 33 1
1 34 1
1 35 1
1 36 1
1 37 1
1 39 1
1 41 1
1 42 1
1 43 1
1 45 1
1 46 1
1 49 1
1 52 1
1 54 1
1 57 1
1 65 1
1 66 1
1 67 1
1 69 1
1 70 1
1 71 1
1 73 1
1 74 1
1 77 1
1 81 1
1 82 1
1 83 1
1 84 1
1 86 1
1 90 1
1 93 1
1 95 1
1 97 1
1 104 1
1 105 1
1 108 1
1 113 1
1 114 1
1 115 1
1 117 1
1 119 1
1 122 1
1 125 1
1 129 1
1 130 1
1 131 1
1 132 1
1 133 1
1 134 1
1 137 1
1 138 1
1 139 1
1 141 1
1 145 1
1 147 1
1 149 1
1 152 1
1 161 1
1 162 1
1 163 1
1 164 1
1 165 1
1 168 1
1 169 1
1 170 1
1 171 1
1 172 1
1 174 1
1 177 1
1 184 1
1 191 1
1 193 1
1 194 1
1 197 1
1 198 1
1 201 1
1 202 1
1 209 1
1 213 1
1 214 1
1 225 1
1 226 1
1 257 1
1 258 1
1 259 1
1 260 1
1 261 1
1 262 1
1 264 1
1 265 1
1 266 1
1 267 1
1 268 1
1 269 1
1 271 1
1 273 1
1 275 1
1 277 1
1 278 1
1 281 1
1 289 1
1 290 1
1 291 1
1 292 1
1 293 1
1 297 1
1 298 1
1 304 1
1 305 1
1 317 1
1 318 1
1 321 1
1 322 1
1 323 1
1 324 1
1 325 1
1 326 1
1 327 1
1 328 1
1 329 1
1 334 1
1 339 1
1 345 1
1 349 1
1 353 1
1 354 1
1 361 1
1 363 1
1 370 1
1 385 1
1 386 1
1 387 1
1 389 1
1 391 1
1 393 1
1 394 1
1 402 1
1 412 1
1 417 1
1 419 1
1 421 1
1 423 1
1 429 1
1 433 1
1 450 1
1 454 1
1 457 1
1 465 1
1 471 1
1 492 1
1 513 1
1 514 1
1 515 1
1 517 1
1 518 1
1 520 1
1 521 1
1 522 1
1 523 1
1 525 1
1 526 1
1 527 1
1 529 1
1 530 1
1 531 1
1 532 1
1 533 1
1 535 1
1 537 1
1 538 1
1 545 1
1 546 1
1 547 1
1 549 1
1 550 1
1 553 1
1 561 1
1 562 1
1 563 1
1 567 1
1 570 1
1 571 1
1 577 1
1 578 1
1 579 1
1 581 1
1 583 1
1 593 1
1 594 1
1 597 1
1 610 1
1 611 1
1 617 1
1 626 1
1 639 1
1 641 1
1 642 1
1 643 1
1 644 1
1 645 1
1 646 1
1 649 1
1 653 1
1 657 1
1 658 1
1 659 1
1 660 1
1 661 1
1 673 1
1 677 1
1 681 1
1 682 1
1 684 1
1 685 1
1 690 1
1 691 1
1 707 1
1 709 1
1 710 1
1 737 1
1 741 1
1 747 1
1 769 1
1 770 1
1 771 1
1 772 1
1 773 1
1 775 1
1 777 1
1 779 1
1 780 1
1 785 1
1 788 1
1 789 1
1 797 1
1 803 1
1 804 1
1 805 1
1 806 1
1 813 1
1 833 1
1 841 1
1 884 1
1 897 1
1 899 1
1 902 1
1 931 1
1 933 1
1 961 1
1 963 1
1 965 1
1 985 1
1 1025 1
1 1026 1
1 1027 1
1 1029 1
1 1030 1
1 1032 1
1 1033 1
1 1035 1
1 1036 1
1 1041 1
1 1042 1
1 1043 1
1 1045 1
1 1047 1
1 1049 1
1 1051 1
1 1056 1
1 1057 1
1 1058 1
1 1060 1
1 1061 1
1 1062 1
1 1065 1
1 1068 1
1 1069 1
1 1072 1
1 1073 1
1 1074 1
1 1075 1
1 1082 1
1 1085 1
1 1089 1
1 1090 1
1 1091 1
1 1093 1
1 1095 1
1 1097 1
1 1099 1
1 1102 1
1 1105 1
1 1109 1
1 1117 1
1 1121 1
1 1123 1
1 1129 1
1 1135 1
1 1146 1
1 1153 1
1 1155 1
1 1157 1
1 1158 1
1 1159 1
1 1161 1
1 1163 1
1 1169 1
1 1170 1
1 1177 1
1 1185 1
1 1192 1
1 1204 1
1 1217 1
1 1227 1
1 1229 1
1 1232 1
1 1281 1
1 1282 1
1 1283 1
1 1284 1
1 1287 1
1 1289 1
1 1290 1
1 1291 1
1 1292 1
1 1296 1
1 1297 1
1 1298 1
1 1299 1
1 1303 1
1 1305 1
1 1306 1
1 1307 1
1 1313 1
1 1314 1
1 1317 1
1 1322 1
1 1327 1
1 1345 1
1 1346 1
1 1347 1
1 1353 1
1 1361 1
1 1366 1
1 1377 1
1 1413 1
1 1417 1
1 1427 1
1 1429 1
1 1436 1
1 1441 1
1 1473 1
1 1479 1
1 1484 1
1 1537 1
1 1538 1
1 1540 1
1 1541 1
1 1546 1
1 1547 1
1 1549 1
1 1553 1
1 1554 1
1 1555 1
1 1561 1
1 1562 1
1 1566 1
1 1569 1
1 1575 1
1 1581 1
1 1601 1
1 1602 1
1 1606 1
1 1619 1
1 1621 1
1 1635 1
1 1665 1
1 1677 1
1 1681 1
1 1683 1
1 1697 1
1 1706 1
1 1707 1
1 1730 1
1 1745 1
1 1793 1
1 1797 1
1 1798 1
1 1802 1
1 1825 1
1 1829 1
1 1837 1
1 1844 1
1 1863 1
1 1921 1
1 1934 1
1 1937 1
1 1971 1
1 2001 1
1 2019 1
1 2049 1
1 2050 1
1 2051 1
1 2052 1
1 2053 1
1 2054 1
1 2057 1
1 2061 1
1 2063 1
1 2065 1
1 2066 1
1 2067 1
1 2069 1
1 2072 1
1 2073 1
1 2081 1
1 2086 1
1 2087 1
1 2089 1
1 2101 1
1 2113 1
1 2115 1
1 2117 1
1 2118 1
1 2121 1
1 2125 1
1 2129 1
1 2133 1
1 2134 1
1 2137 1
1 2145 1
1 2146 1
1 2147 1
1 2149 1
1 2157 1
1 2161 1
1 2177 1
1 2178 1
1 2179 1
1 2183 1
1 2185 1
1 2186 1
1 2188 1
1 2190 1
1 2191 1
1 2193 1
1 2199 1
1 2202 1
1 2203 1
1 2205 1
1 2206 1
1 2209 1
1 2225 1
1 2232 1
1 2236 1
1 2241 1
1 2245 1
1 2247 1
1 2249 1
1 2256 1
1 2271 1
1 2273 1
1 2274 1
1 2283 1
1 2305 1
1 2306 1
1 2309 1
1 2311 1
1 2314 1
1 2316 1
1 2321 1
1 2325 1
1 2337 1
1 2369 1
1 2371 1
1 2375 1
1 2377 1
1 2379 1
1 2385 1
1 2401 1
1 2433 1
1 2434 1
1 2435 1
1 2441 1
1 2446 1
1 2449 1
1 2465 1
1 2500 1
1 2501 1
1 2527 1
1 2561 1
1 2562 1
1 2563 1
1 2565 1
1 2566 1
1 2567 1
1 2570 1
1 2571 1
1 2573 1
1 2574 1
1 2577 1
1 2579 1
1 2581 1
1 2593 1
1 2594 1
1 2597 1
1 2610 1
1 2613 1
1 2625 1
1 2627 1
1 2641 1
1 2642 1
1 2654 1
1 2658 1
1 2686 1
1 2690 1
1 2693 1
1 2695 1
1 2697 1
1 2700 1
1 2705 1
1 2710 1
1 2729 1
1 2741 1
1 2765 1
1 2769 1
1 2781 1
1 2817 1
1 2819 1
1 2821 1
1 2827 1
1 2831 1
1 2834 1
1 2841 1
1 2849 1
1 2899 1
1 2900 1
1 2913 1
1 2957 1
1 2958 1
1 3041 1
1 3073 1
1 3074 1
1 3076 1
1 3081 1
1 3090 1
1 3097 1
1 3098 1
1 3099 1
1 3109 1
1 3113 1
1 3114 1
1 3115 1
1 3121 1
1 3122 1
1 3138 1
1 3139 1
1 3153 1
1 3161 1
1 3169 1
1 3173 1
1 3202 1
1 3204 1
1 3209 1
1 3217 1
1 3329 1
1 3330 1
1 3331 1
1 3334 1
1 3346 1
1 3353 1
1 3363 1
1 3366 1
1 3369 1
1 3395 1
1 3425 1
1 3434 1
1 3461 1
1 3481 1
1 3493 1
1 3521 1
1 3586 1
1 3587 1
1 3613 1
1 3625 1
1 3633 1
1 3669 1
1 3673 1
1 3721 1
1 3729 1
1 3779 1
1 3844 1
1 3845 1
1 3877 1
1 3937 1
1 3969 1
2 1 1
2 3 1
2 4 1
2 5 1
2 6 1
2 7 1
2 9 1
2 10 1
2 11 1
2 13 1
2 17 1
2 18 1
2 19 1
2 21 1
2 27 1
2 28 1
2 33 1
2 34 1
2 35 1
2 37 1
2 38 1
2 39 1
2 40 1
2 42 1
2 45 1
2 57 1
2 65 1
2 68 1
2 69 1
2 72 1
2 73 1
2 81 1
2 84 1
2 91 1
2 97 1
2 101 1
2 113 1
2 129 1
2 131 1
2 133 1
2 135 1
2 137 1
2 139 1
2 143 1
2 145 1
2 147 1
2 149 1
2 153 1
2 161 1
2 168 1
2 193 1
2 194 1
2 205 1
2 209 1
2 227 1
2 247 1
2 257 1
2 261 1
2 263 1
2 265 1
2 272 1
2 273 1
2 275 1
2 289 1
2 313 1
2 321 1
2 323 1
2 327 1
2 339 1
2 349 1
2 353 1
2 371 1
2 385 1
2 386 1
2 394 1
2 401 1
2 402 1
2 407 1
2 417 1
2 489 1
2 513 1
2 514 1
2 515 1
2 517 1
2 518 1
2 529 1
2 546 1
2 550 1
2 555 1
2 577 1
2 585 1
2 593 1
2 625 1
2 631 1
2 641 1
2 642 1
2 644 1
2 645 1
2 652 1
2 673 1
2 683 1
2 686 1
2 702 1
2 709 1
2 769 1
2 770 1
2 771 1
2 777 1
2 785 1
2 786 1
2 801 1
2 805 1
2 823 1
2 866 1
2 897 1
2 905 1
2 1025 1
2 1026 1
2 1029 1
2 1033 1
2 1034 1
2 1035 1
2 1041 1
2 1045 1
2 1047 1
2 1057 1
2 1063 1
2 1067 1
2 1075 1
2 1089 1
2 1090 1
2 1091 1
2 1099 1
2 1109 1
2 1114 1
2 1121 1
2 1123 1
2 1131 1
2 1153 1
2 1154 1
2 1155 1
2 1156 1
2 1169 1
2 1173 1
2 1192 1
2 1217 1
2 1282 1
2 1291 1
2 1297 1
2 1303 1
2 1345 1
2 1353 1
2 1476 1
2 1537 1
2 1538 1
2 1539 1
2 1542 1
2 1550 1
2 1557 1
2 1618 1
2 1641 1
2 1644 1
2 1705 1
2 1801 1
2 1809 1
2 1825 1
2 1835 1
2 1845 1
2 1921 1
2 2049 1
2 2050 1
2 2051 1
2 2052 1
2 2053 1
2 2057 1
2 2060 1
2 2065 1
2 2066 1
2 2067 1
2 2068 1
2 2069 1
2 2073 1
2 2081 1
2 2084 1
2 2088 1
2 2089 1
2 2113 1
2 2119 1
2 2128 1
2 2139 1
2 2145 1
2 2179 1
2 2185 1
2 2210 1
2 2233 1
2 2265 1
2 2281 1
2 2282 1
2 2319 1
2 2321 1
2 2322 1
2 2337 1
2 2339 1
2 2340 1
2 2362 1
2 2371 1
2 2387 1
2 2393 1
2 2433 1
2 2435 1
2 2471 1
2 2513 1
2 2521 1
2 2561 1
2 2563 1
2 2577 1
2 2579 1
2 2585 1
2 2594 1
2 2609 1
2 2617 1
2 2625 1
2 2633 1
2 2689 1
2 2723 1
2 2725 1
2 2737 1
2 2819 1
2 2861 1
2 3073 1
2 3075 1
2 3077 1
2 3081 1
2 3083 1
2 3095 1
2 3106 1
2 3109 1
2 3114 1
2 3177 1
2 3187 1
2 3201 1
2 3208 1
2 3215 1
2 3257 1
2 3361 1
2 3369 1
2 3606 1
2 3626 1
2 3649 1
2 3851 1
2 4038 1
3 1 1
3 2 1
3 4 1
3 5 1
3 6 1
3 7 1
3 8 1
3 9 1
3 10 1
3 11 1
3 12 1
3 15 1
3 17 1
3 18 1
3 19 1
3 21 1
3 31 1
3 33 1
3 34 1
3 35 1
3 36 1
3 37 1
3 38 1
3 40 1
3 41 1
3 43 1
3 44 1
3 49 1
3 54 1
3 57 1
3 65 1
3 66 1
3 67 1
3 69 1
3 70 1
3 75 1
3 78 1
3 81 1
3 83 1
3 87 1
3 89 1
3 97 1
3 98 1
3 105 1
3 113 1
3 118 1
3 121 1
3 129 1
3 130 1
3 132 1
3 133 1
3 134 1
3 135 1
3 139 1
3 145 1
3 146 1
3 161 1
3 170 1
3 177 1
3 181 1
3 185 1
3 195 1
3 197 1
3 199 1
3 201 1
3 209 1
3 226 1
3 229 1
3 233 1
3 237 1
3 257 1
3 258 1
3 261 1
3 262 1
3 265 1
3 266 1
3 273 1
3 274 1
3 281 1
3 285 1
3 289 1
3 291 1
3 294 1
3 312 1
3 325 1
3 329 1
3 337 1
3 373 1
3 386 1
3 390 1
3 405 1
3 417 1
3 418 1
3 421 1
3 433 1
3 437 1
3 449 1
3 513 1
3 515 1
3 516 1
3 517 1
3 521 1
3 525 1
3 529 1
3 531 1
3 534 1
3 537 1
3 538 1
3 545 1
3 554 1
3 561 1
3 562 1
3 577 1
3 578 1
3 581 1
3 585 1
3 586 1
3 609 1
3 617 1
3 631 1
3 641 1
3 643 1
3 646 1
3 649 1
3 653 1
3 665 1
3 686 1
3 705 1
3 716 1
3 721 1
3 742 1
3 769 1
3 770 1
3 777 1
3 802 1
3 837 1
3 933 1
3 973 1
3 1025 1
3 1026 1
3 1027 1
3 1029 1
3 1031 1
3 1032 1
3 1033 1
3 1041 1
3 1042 1
3 1057 1
3 1089 1
3 1090 1
3 1125 1
3 1141 1
3 1154 1
3 1157 1
3 1162 1
3 1165 1
3 1166 1
3 1169 1
3 1185 1
3 1186 1
3 1213 1
3 1217 1
3 1236 1
3 1282 1
3 1283 1
3 1286 1
3 1287 1
3 1289 1
3 1299 1
3 1314 1
3 1315 1
3 1317 1
3 1345 1
3 1347 1
3 1363 1
3 1409 1
3 1425 1
3 1457 1
3 1473 1
3 1537 1
3 1538 1
3 1539 1
3 1546 1
3 1549 1
3 1553 1
3 1559 1
3 1577 1
3 1587 1
3 1594 1
3 1601 1
3 1605 1
3 1633 1
3 1709 1
3 1793 1
3 1817 1
3 1954 1
3 2049 1
3 2050 1
3 2051 1
3 2052 1
3 2053 1
3 2057 1
3 2060 1
3 2065 1
3 2066 1
3 2067 1
3 2068 1
3 2069 1
3 2070 1
3 2081 1
3 2114 1
3 2115 1
3 2121 1
3 2129 1
3 2137 1
3 2161 1
3 2177 1
3 2178 1
3 2181 1
3 2195 1
3 2201 1
3 2249 1
3 2265 1
3 2290 1
3 2305 1
3 2306 1
3 2307 1
3 2309 1
3 2314 1
3 2321 1
3 2376 1
3 2401 1
3 2402 1
3 2441 1
3 2450 1
3 2465 1
3 2561 1
3 2569 1
3 2578 1
3 2584 1
3 2593 1
3 2625 1
3 2627 1
3 2629 1
3 2677 1
3 2737 1
3 2794 1
3 2820 1
3 2841 1
3 2946 1
3 2951 1
3 3073 1
3 3075 1
3 3077 1
3 3089 1
3 3093 1
3 3105 1
3 3138 1
3 3161 1
3 3205 1
3 3217 1
3 3306 1
3 3331 1
3 3361 1
3 3393 1
3 3418 1
3 3459 1
3 3497 1
3 3593 1
3 3613 1
3 3617 1
3 3651 1
3 3731 1
3 3849 1
4 1 1
4 2 1
4 3 1
4 5 1
4 7 1
4 11 1
4 13 1
4 15 1
4 17 1
4 18 1
4 19 1
4 33 1
4 39 1
4 41 1
4 45 1
4 49 1
4 65 1
4 68 1
4 75 1
4 85 1
4 129 1
4 137 1
4 141 1
4 142 1
4 145 1
4 149 1
4 161 1
4 165 1
4 166 1
4 169 1
4 193 1
4 194 1
4 215 1
4 257 1
4 259 1
4 265 1
4 267 1
4 281 1
4 305 1
4 321 1
4 389 1
4 401 1
4 533 1
4 551 1
4 577 1
4 609 1
4 618 1
4 705 1
4 845 1
4 852 1
4 871 1
4 931 1
4 1025 1
4 1027 1
4 1029 1
4 1031 1
4 1033 1
4 1041 1
4 1057 1
4 1091 1
4 1096 1
4 1101 1
4 1153 1
4 1155 1
4 1222 1
4 1266 1
4 1281 1
4 1346 1
4 1410 1
4 1417 1
4 1555 1
4 1617 1
4 1705 1
4 2049 1
4 2055 1
4 2059 1
4 2065 1
4 2083 1
4 2113 1
4 2115 1
4 2202 1
4 2305 1
4 2341 1
4 2577 1
4 2581 1
4 2594 1
4 2609 1
4 2625 1
4 2659 1
4 2689 1
4 2701 1
4 2721 1
4 3205 1
4 3333 1
4 3345 1
4 3469 1
4 3473 1
4 3585 1
4 3644 1
4 3714 1
5 1 1
5 2 1
5 3 1
5 4 1
5 6 1
5 7 1
5 9 1
5 10 1
5 11 1
5 12 1
5 13 1
5 14 1
5 17 1
5 18 1
5 20 1
5 21 1
5 23 1
5 26 1
5 33 1
5 34 1
5 35 1
5 39 1
5 41 1
5 42 1
5 43 1
5 45 1
5 57 1
5 65 1
5 66 1
5 67 1
5 69 1
5 71 1
5 72 1
5 73 1
5 74 1
5 75 1
5 81 1
5 97 1
5 99 1
5 106 1
5 113 1
5 129 1
5 130 1
5 131 1
5 133 1
5 134 1
5 137 1
5 138 1
5 145 1
5 147 1
5 161 1
5 171 1
5 185 1
5 187 1
5 193 1
5 198 1
5 206 1
5 209 1
5 228 1
5 233 1
5 241 1
5 257 1
5 258 1
5 259 1
5 263 1
5 265 1
5 267 1
5 273 1
5 274 1
5 275 1
5 282 1
5 289 1
5 290 1
5 291 1
5 293 1
5 321 1
5 322 1
5 325 1
5 329 1
5 385 1
5 387 1
5 390 1
5 393 1
5 398 1
5 403 1
5 420 1
5 473 1
5 476 1
5 513 1
5 514 1
5 515 1
5 516 1
5 521 1
5 522 1
5 529 1
5 530 1
5 533 1
5 537 1
5 545 1
5 553 1
5 558 1
5 577 1
5 578 1
5 581 1
5 585 1
5 609 1
5 645 1
5 649 1
5 651 1
5 659 1
5 694 1
5 705 1
5 721 1
5 722 1
5 751 1
5 769 1
5 777 1
5 785 1
5 813 1
5 827 1
5 839 1
5 842 1
5 853 1
5 897 1
5 907 1
5 946 1
5 993 1
5 1001 1
5 1025 1
5 1026 1
5 1033 1
5 1041 1
5 1042 1
5 1043 1
5 1045 1
5 1057 1
5 1058 1
5 1089 1
5 1091 1
5 1094 1
5 1123 1
5 1157 1
5 1159 1
5 1163 1
5 1169 1
5 1190 1
5 1196 1
5 1242 1
5 1282 1
5 1283 1
5 1284 1
5 1289 1
5 1290 1
5 1322 1
5 1378 1
5 1409 1
5 1425 1
5 1427 1
5 1473 1
5 1507 1
5 1539 1
5 1540 1
5 1542 1
5 1551 1
5 1555 1
5 1564 1
5 1571 1
5 1611 1
5 1673 1
5 1921 1
5 1933 1
5 2049 1
5 2051 1
5 2053 1
5 2055 1
5 2057 1
5 2065 1
5 2067 1
5 2071 1
5 2081 1
5 2085 1
5 2086 1
5 2089 1
5 2098 1
5 2116 1
5 2121 1
5 2129 1
5 2137 1
5 2145 1
5 2162 1
5 2178 1
5 2187 1
5 2193 1
5 2210 1
5 2213 1
5 2219 1
5 2273 1
5 2283 1
5 2308 1
5 2313 1
5 2314 1
5 2347 1
5 2355 1
5 2369 1
5 2433 1
5 2441 1
5 2502 1
5 2562 1
5 2564 1
5 2593 1
5 2626 1
5 2629 1
5 2828 1
5 2905 1
5 2994 1
5 3073 1
5 3081 1
5 3089 1
5 3106 1
5 3122 1
5 3137 1
5 3141 1
5 3207 1
5 3212 1
5 3223 1
5 3297 1
5 3330 1
5 3331 1
5 3333 1
5 3355 1
5 3459 1
5 3559 1
5 3585 1
5 3599 1
5 3621 1
5 3623 1
5 3729 1
5 3783 1
5 3969 1
6 1 1
6 2 1
6 3 1
6 5 1
6 7 1
6 9 1
6 10 1
6 17 1
6 20 1
6 21 1
6 23 1
6 24 1
6 31 1
6 33 1
6 35 1
6 41 1
6 43 1
6 44 1
6 65 1
6 69 1
6 73 1
6 97 1
6 114 1
6 129 1
6 133 1
6 147 1
6 153 1
6 163 1
6 173 1
6 193 1
6 259 1
6 263 1
6 267 1
6 291 1
6 325 1
6 337 1
6 341 1
6 345 1
6 349 1
6 385 1
6 386 1
6 425 1
6 449 1
6 491 1
6 513 1
6 514 1
6 533 1
6 535 1
6 593 1
6 597 1
6 609 1
6 629 1
6 641 1
6 644 1
6 653 1
6 657 1
6 658 1
6 675 1
6 769 1
6 770 1
6 778 1
6 785 1
6 802 1
6 834 1
6 849 1
6 859 1
6 897 1
6 961 1
6 1027 1
6 1029 1
6 1037 1
6 1043 1
6 1053 1
6 1107 1
6 1249 1
6 1286 1
6 1313 1
6 1315 1
6 1335 1
6 1553 1
6 1665 1
6 1797 1
6 1812 1
6 2049 1
6 2050 1
6 2052 1
6 2053 1
6 2057 1
6 2065 1
6 2073 1
6 2090 1
6 2178 1
6 2179 1
6 2180 1
6 2193 1
6 2216 1
6 2305 1
6 2306 1
6 2337 1
6 2340 1
6 2369 1
6 2565 1
6 2977 1
6 3074 1
6 3081 1
6 3107 1
6 3217 1
6 3330 1
6 3460 1
6 3477 1
7 1 1
7 2 1
7 3 1
7 4 1
7 5 1
7 6 1
7 9 1
7 10 1
7 13 1
7 14 1
7 17 1
7 21 1
7 25 1
7 33 1
7 34 1
7 35 1
7 37 1
7 41 1
7 45 1
7 58 1
7 65 1
7 67 1
7 73 1
7 81 1
7 105 1
7 113 1
7 132 1
7 137 1
7 139 1
7 145 1
7 149 1
7 163 1
7 167 1
7 169 1
7 170 1
7 193 1
7 228 1
7 265 1
7 277 1
7 286 1
7 294 1
7 361 1
7 425 1
7 513 1
7 514 1
7 523 1
7 525 1
7 529 1
7 547 1
7 581 1
7 642 1
7 649 1
7 657 1
7 677 1
7 723 1
7 770 1
7 846 1
7 866 1
7 1025 1
7 1027 1
7 1030 1
7 1033 1
7 1035 1
7 1057 1
7 1069 1
7 1093 1
7 1157 1
7 1175 1
7 1281 1
7 1285 1
7 1290 1
7 1345 1
7 1370 1
7 1377 1
7 1537 1
7 1555 1
7 1559 1
7 2001 1
7 2050 1
7 2057 1
7 2066 1
7 2082 1
7 2090 1
7 2097 1
7 2180 1
7 2193 1
7 2194 1
7 2306 1
7 2337 1
7 2378 1
7 2691 1
7 2825 1
7 2882 1
7 2945 1
7 3073 1
7 3093 1
7 3189 1
7 3201 1
7 3233 1
7 3241 1
7 3441 1
7 3719 1
7 3873 1
8 1 1
8 3 1
8 9 1
8 18 1
8 33 1
8 65 1
8 89 1
8 135 1
8 153 1
8 521 1
8 547 1
8 649 1
8 841 1
8 1153 1
8 1257 1
8 1606 1
8 1793 1
8 1830 1
8 1858 1
8 2054 1
8 2055 1
8 2089 1
8 2209 1
8 2593 1
8 2605 1
8 2625 1
8 2897 1
8 3842 1
9 1 1
9 2 1
9 3 1
9 5 1
9 6 1
9 7 1
9 8 1
9 11 1
9 13 1
9 17 1
9 19 1
9 21 1
9 25 1
9 29 1
9 33 1
9 34 1
9 35 1
9 37 1
9 45 1
9 49 1
9 50 1
9 51 1
9 55 1
9 59 1
9 63 1
9 65 1
9 67 1
9 68 1
9 69 1
9 70 1
9 73 1
9 74 1
9 75 1
9 77 1
9 81 1
9 91 1
9 93 1
9 97 1
9 98 1
9 105 1
9 113 1
9 129 1
9 130 1
9 131 1
9 132 1
9 133 1
9 135 1
9 139 1
9 142 1
9 147 1
9 153 1
9 161 1
9 163 1
9 164 1
9 166 1
9 193 1
9 227 1
9 230 1
9 241 1
9 242 1
9 257 1
9 259 1
9 261 1
9 265 1
9 269 1
9 273 1
9 281 1
9 283 1
9 289 1
9 290 1
9 293 1
9 305 1
9 307 1
9 309 1
9 323 1
9 325 1
9 331 1
9 341 1
9 345 1
9 353 1
9 385 1
9 387 1
9 389 1
9 395 1
9 466 1
9 505 1
9 513 1
9 514 1
9 515 1
9 517 1
9 520 1
9 521 1
9 522 1
9 523 1
9 529 1
9 531 1
9 538 1
9 545 1
9 549 1
9 562 1
9 564 1
9 571 1
9 577 1
9 579 1
9 590 1
9 595 1
9 597 1
9 619 1
9 643 1
9 645 1
9 649 1
9 658 1
9 673 1
9 674 1
9 681 1
9 682 1
9 769 1
9 770 1
9 777 1
9 782 1
9 783 1
9 787 1
9 798 1
9 834 1
9 842 1
9 845 1
9 850 1
9 865 1
9 881 1
9 929 1
9 962 1
9 967 1
9 969 1
9 1027 1
9 1028 1
9 1034 1
9 1041 1
9 1042 1
9 1050 1
9 1057 1
9 1058 1
9 1060 1
9 1061 1
9 1064 1
9 1067 1
9 1082 1
9 1091 1
9 1097 1
9 1098 1
9 1111 1
9 1121 1
9 1124 1
9 1153 1
9 1155 1
9 1157 1
9 1186 1
9 1196 1
9 1205 1
9 1217 1
9 1218 1
9 1221 1
9 1281 1
9 1282 1
9 1283 1
9 1330 1
9 1365 1
9 1377 1
9 1409 1
9 1482 1
9 1537 1
9 1538 1
9 1539 1
9 1540 1
9 1541 1
9 1555 1
9 1557 1
9 1561 1
9 1569 1
9 1601 1
9 1610 1
9 1617 1
9 1634 1
9 1665 1
9 1667 1
9 1673 1
9 1683 1
9 1713 1
9 1777 1
9 1793 1
9 2049 1
9 2050 1
9 2051 1
9 2052 1
9 2053 1
9 2055 1
9 2058 1
9 2060 1
9 2065 1
9 2066 1
9 2068 1
9 2069 1
9 2081 1
9 2083 1
9 2089 1
9 2097 1
9 2117 1
9 2121 1
9 2129 1
9 2138 1
9 2143 1
9 2146 1
9 2155 1
9 2177 1
9 2179 1
9 2192 1
9 2193 1
9 2195 1
9 2209 1
9 2243 1
9 2258 1
9 2273 1
9 2274 1
9 2314 1
9 2317 1
9 2346 1
9 2369 1
9 2385 1
9 2387 1
9 2441 1
9 2471 1
9 2519 1
9 2521 1
9 2561 1
9 2563 1
9 2565 1
9 2602 1
9 2657 1
9 2661 1
9 2682 1
9 2691 1
9 2721 1
9 2817 1
9 2850 1
9 2851 1
9 3057 1
9 3073 1
9 3075 1
9 3076 1
9 3084 1
9 3085 1
9 3137 1
9 3140 1
9 3141 1
9 3161 1
9 3201 1
9 3217 1
9 3218 1
9 3265 1
9 3330 1
9 3349 1
9 3377 1
9 3378 1
9 3397 1
9 3425 1
9 3476 1
9 3585 1
9 3617 1
9 3713 1
9 3784 1
9 3943 1
9 4015 1
10 1 1
10 2 1
10 3 1
10 5 1
10 6 1
10 7 1
10 17 1
10 18 1
10 21 1
10 29 1
10 34 1
10 45 1
10 47 1
10 51 1
10 53 1
10 65 1
10 66 1
10 68 1
10 71 1
10 81 1
10 129 1
10 136 1
10 137 1
10 139 1
10 155 1
10 163 1
10 181 1
10 193 1
10 241 1
10 257 1
10 261 1
10 265 1
10 268 1
10 273 1
10 289 1
10 321 1
10 328 1
10 375 1
10 385 1
10 389 1
10 394 1
10 419 1
10 449 1
10 450 1
10 451 1
10 513 1
10 514 1
10 515 1
10 521 1
10 547 1
10 561 1
10 625 1
10 675 1
10 676 1
10 769 1
10 773 1
10 817 1
10 873 1
10 897 1
10 1025 1
10 1029 1
10 1031 1
10 1045 1
10 1057 1
10 1065 1
10 1090 1
10 1154 1
10 1155 1
10 1187 1
10 1203 1
10 1283 1
10 1285 1
10 1289 1
10 1409 1
10 1420 1
10 1426 1
10 1457 1
10 1537 1
10 1554 1
10 1561 1
10 1601 1
10 1670 1
10 1921 1
10 1985 1
10 2052 1
10 2065 1
10 2089 1
10 2097 1
10 2118 1
10 2121 1
10 2145 1
10 2179 1
10 2191 1
10 2305 1
10 2309 1
10 2343 1
10 2369 1
10 2374 1
10 2445 1
10 2473 1
10 2565 1
10 2627 1
10 2720 1
10 2829 1
10 2834 1
10 2849 1
10 3073 1
10 3081 1
10 3107 1
10 3148 1
10 3403 1
10 3457 1
11 1 1
11 2 1
11 3 1
11 4 1
11 5 1
11 9 1
11 17 1
11 18 1
11 22 1
11 23 1
11 33 1
11 34 1
11 36 1
11 40 1
11 41 1
11 65 1
11 69 1
11 89 1
11 98 1
11 129 1
11 130 1
11 131 1
11 145 1
11 170 1
11 225 1
11 232 1
11 245 1
11 257 1
11 258 1
11 261 1
11 265 1
11 273 1
11 274 1
11 277 1
11 331 1
11 385 1
11 388 1
11 482 1
11 513 1
11 515 1
11 521 1
11 523 1
11 529 1
11 537 1
11 541 1
11 579 1
11 611 1
11 675 1
11 705 1
11 787 1
11 1029 1
11 1049 1
11 1050 1
11 1057 1
11 1085 1
11 1105 1
11 1122 1
11 1141 1
11 1142 1
11 1170 1
11 1221 1
11 1233 1
11 1281 1
11 1395 1
11 1537 1
11 1538 1
11 1546 1
11 1569 1
11 1795 1
11 1831 1
11 2049 1
11 2050 1
11 2055 1
11 2057 1
11 2066 1
11 2069 1
11 2073 1
11 2084 1
11 2177 1
11 2191 1
11 2194 1
11 2209 1
11 2213 1
11 2225 1
11 2242 1
11 2305 1
11 2313 1
11 2337 1
11 2369 1
11 2433 1
11 2449 1
11 2561 1
11 2563 1
11 2657 1
11 2689 1
11 2692 1
11 2763 1
11 2820 1
11 2841 1
11 3123 1
11 3457 1
11 3634 1
11 3655 1
11 3845 1
12 1 1
12 3 1
12 5 1
12 66 1
12 99 1
12 153 1
12 161 1
12 165 1
12 261 1
12 306 1
12 513 1
12 554 1
12 561 1
12 865 1
12 1025 1
12 1029 1
12 1033 1
12 1061 1
12 1089 1
12 1153 1
12 1355 1
12 1545 1
12 1573 1
12 1670 1
12 2049 1
12 2089 1
12 2097 1
12 2101 1
12 2113 1
12 2115 1
12 2629 1
12 3137 1
13 1 1
13 2 1
13 4 1
13 5 1
13 7 1
13 9 1
13 17 1
13 27 1
13 33 1
13 34 1
13 41 1
13 51 1
13 65 1
13 67 1
13 83 1
13 114 1
13 130 1
13 157 1
13 161 1
13 193 1
13 210 1
13 225 1
13 259 1
13 261 1
13 266 1
13 385 1
13 435 1
13 451 1
13 474 1
13 513 1
13 523 1
13 561 1
13 563 1
13 580 1
13 699 1
13 737 1
13 769 1
13 897 1
13 1025 1
13 1026 1
13 1037 1
13 1061 1
13 1089 1
13 1141 1
13 1154 1
13 1155 1
13 1157 1
13 1186 1
13 1220 1
13 1225 1
13 1281 1
13 1285 1
13 1349 1
13 1377 1
13 1537 1
13 1539 1
13 1554 1
13 1556 1
13 1605 1
13 1833 1
13 1921 1
13 2049 1
13 2053 1
13 2059 1
13 2065 1
13 2069 1
13 2099 1
13 2103 1
13 2184 1
13 2243 1
13 2305 1
13 2337 1
13 2465 1
13 2468 1
13 2561 1
13 2564 1
13 2573 1
13 2578 1
13 2581 1
13 2657 1
13 2821 1
13 2826 1
13 3093 1
13 3592 1
13 3594 1
13 3777 1
14 5 1
14 7 1
14 49 1
14 71 1
14 92 1
14 153 1
14 193 1
14 199 1
14 201 1
14 269 1
14 393 1
14 402 1
14 513 1
14 529 1
14 745 1
14 769 1
14 865 1
14 1031 1
14 1099 1
14 1122 1
14 1283 1
14 1545 1
14 1570 1
14 1613 1
14 1765 1
14 2049 1
14 2083 1
14 2113 1
14 2157 1
14 2177 1
14 2255 1
14 2324 1
14 2577 1
14 2657 1
14 3084 1
15 1 1
15 3 1
15 4 1
15 19 1
15 36 1
15 69 1
15 89 1
15 143 1
15 321 1
15 389 1
15 517 1
15 593 1
15 771 1
15 897 1
15 1124 1
15 1153 1
15 1297 1
15 1321 1
15 1413 1
15 1609 1
15 1621 1
15 1861 1
15 1953 1
15 2053 1
15 2081 1
15 2146 1
15 2225 1
15 2515 1
15 3106 1
15 3659 1
16 705 1
16 1041 1
16 1057 1
16 2105 1
16 2113 1
16 2241 1
16 3075 1
17 1 1
17 2 1
17 3 1
17 4 1
17 5 1
17 6 1
17 7 1
17 9 1
17 10 1
17 11 1
17 13 1
17 18 1
17 19 1
17 20 1
17 21 1
17 22 1
17 24 1
17 25 1
17 33 1
17 34 1
17 35 1
17 37 1
17 50 1
17 51 1
17 54 1
17 59 1
17 65 1
17 66 1
17 67 1
17 68 1
17 69 1
17 70 1
17 73 1
17 75 1
17 77 1
17 81 1
17 82 1
17 85 1
17 97 1
17 109 1
17 117 1
17 129 1
17 130 1
17 131 1
17 133 1
17 135 1
17 137 1
17 140 1
17 141 1
17 145 1
17 147 1
17 161 1
17 165 1
17 194 1
17 196 1
17 197 1
17 209 1
17 242 1
17 251 1
17 257 1
17 258 1
17 259 1
17 261 1
17 264 1
17 265 1
17 269 1
17 273 1
17 289 1
17 290 1
17 292 1
17 293 1
17 297 1
17 306 1
17 310 1
17 321 1
17 331 1
17 341 1
17 345 1
17 363 1
17 385 1
17 386 1
17 391 1
17 393 1
17 449 1
17 451 1
17 498 1
17 513 1
17 514 1
17 515 1
17 517 1
17 521 1
17 522 1
17 523 1
17 526 1
17 530 1
17 532 1
17 533 1
17 545 1
17 554 1
17 563 1
17 577 1
17 580 1
17 599 1
17 606 1
17 610 1
17 613 1
17 646 1
17 649 1
17 651 1
17 656 1
17 673 1
17 674 1
17 706 1
17 737 1
17 769 1
17 771 1
17 773 1
17 777 1
17 787 1
17 797 1
17 873 1
17 897 1
17 899 1
17 901 1
17 961 1
17 1025 1
17 1026 1
17 1027 1
17 1029 1
17 1033 1
17 1035 1
17 1037 1
17 1041 1
17 1043 1
17 1045 1
17 1049 1
17 1057 1
17 1061 1
17 1062 1
17 1064 1
17 1079 1
17 1089 1
17 1090 1
17 1091 1
17 1093 1
17 1105 1
17 1123 1
17 1135 1
17 1153 1
17 1154 1
17 1169 1
17 1185 1
17 1223 1
17 1225 1
17 1227 1
17 1234 1
17 1257 1
17 1283 1
17 1294 1
17 1313 1
17 1325 1
17 1377 1
17 1441 1
17 1473 1
17 1537 1
17 1541 1
17 1569 1
17 1573 1
17 1609 1
17 1633 1
17 1697 1
17 1699 1
17 1732 1
17 1755 1
17 1793 1
17 1801 1
17 1805 1
17 1806 1
17 1809 1
17 1814 1
17 1841 1
17 1890 1
17 1923 1
17 2049 1
17 2050 1
17 2051 1
17 2057 1
17 2060 1
17 2062 1
17 2063 1
17 2069 1
17 2070 1
17 2081 1
17 2083 1
17 2085 1
17 2113 1
17 2115 1
17 2119 1
17 2123 1
17 2129 1
17 2137 1
17 2147 1
17 2177 1
17 2180 1
17 2181 1
17 2182 1
17 2189 1
17 2201 1
17 2225 1
17 2241 1
17 2258 1
17 2306 1
17 2307 1
17 2317 1
17 2321 1
17 2323 1
17 2326 1
17 2337 1
17 2339 1
17 2355 1
17 2371 1
17 2373 1
17 2375 1
17 2561 1
17 2563 1
17 2564 1
17 2565 1
17 2593 1
17 2595 1
17 2597 1
17 2625 1
17 2627 1
17 2821 1
17 2841 1
17 3075 1
17 3077 1
17 3079 1
17 3103 1
17 3106 1
17 3141 1
17 3147 1
17 3202 1
17 3203 1
17 3205 1
17 3277 1
17 3283 1
17 3329 1
17 3334 1
17 3353 1
17 3386 1
17 3393 1
17 3585 1
17 3619 1
17 3649 1
17 3650 1
17 3714 1
17 3773 1
17 3785 1
17 3841 1
18 1 1
18 2 1
18 3 1
18 4 1
18 5 1
18 8 1
18 10 1
18 11 1
18 17 1
18 21 1
18 34 1
18 37 1
18 41 1
18 49 1
18 53 1
18 65 1
18 66 1
18 74 1
18 93 1
18 101 1
18 129 1
18 138 1
18 139 1
18 143 1
18 161 1
18 193 1
18 257 1
18 260 1
18 265 1
18 269 1
18 271 1
18 281 1
18 289 1
18 293 1
18 327 1
18 347 1
18 369 1
18 385 1
18 395 1
18 433 1
18 455 1
18 482 1
18 513 1
18 515 1
18 517 1
18 519 1
18 525 1
18 531 1
18 550 1
18 561 1
18 593 1
18 641 1
18 642 1
18 657 1
18 705 1
18 769 1
18 770 1
18 785 1
18 841 1
18 857 1
18 979 1
18 1025 1
18 1026 1
18 1029 1
18 1032 1
18 1059 1
18 1063 1
18 1165 1
18 1281 1
18 1282 1
18 1305 1
18 1387 1
18 1429 1
18 1537 1
18 1545 1
18 1554 1
18 1555 1
18 1587 1
18 1777 1
18 1898 1
18 2049 1
18 2059 1
18 2067 1
18 2081 1
18 2091 1
18 2114 1
18 2131 1
18 2145 1
18 2184 1
18 2201 1
18 2245 1
18 2313 1
18 2337 1
18 2433 1
18 2595 1
18 2601 1
18 2635 1
18 2675 1
18 2818 1
18 2961 1
18 3073 1
18 3077 1
18 3099 1
18 3105 1
18 3174 1
18 3257 1
18 3333 1
18 3845 1
19 1 1
19 2 1
19 3 1
19 4 1
19 9 1
19 15 1
19 17 1
19 25 1
19 29 1
19 33 1
19 34 1
19 36 1
19 42 1
19 53 1
19 65 1
19 66 1
19 67 1
19 81 1
19 129 1
19 130 1
19 137 1
19 139 1
19 169 1
19 170 1
19 193 1
19 233 1
19 257 1
19 293 1
19 301 1
19 321 1
19 387 1
19 401 1
19 491 1
19 513 1
19 517 1
19 519 1
19 525 1
19 530 1
19 577 1
19 578 1
19 593 1
19 594 1
19 625 1
19 665 1
19 795 1
19 837 1
19 850 1
19 905 1
19 907 1
19 911 1
19 917 1
19 962 1
19 1025 1
19 1026 1
19 1029 1
19 1033 1
19 1035 1
19 1041 1
19 1057 1
19 1058 1
19 1062 1
19 1067 1
19 1083 1
19 1108 1
19 1125 1
19 1153 1
19 1156 1
19 1157 1
19 1191 1
19 1217 1
19 1233 1
19 1285 1
19 1335 1
19 1377 1
19 1425 1
19 1449 1
19 1541 1
19 1549 1
19 1553 1
19 1573 1
19 2065 1
19 2073 1
19 2081 1
19 2082 1
19 2113 1
19 2119 1
19 2125 1
19 2147 1
19 2169 1
19 2177 1
19 2185 1
19 2321 1
19 2465 1
19 2564 1
19 2610 1
19 2693 1
19 2754 1
19 2849 1
19 2977 1
19 3081 1
19 3091 1
19 3135 1
19 3285 1
19 3333 1
19 3335 1
19 3338 1
19 3432 1
19 3587 1
19 3793 1
20 1 1
20 5 1
20 6 1
20 17 1
20 31 1
20 35 1
20 66 1
20 129 1
20 265 1
20 270 1
20 275 1
20 457 1
20 515 1
20 519 1
20 1025 1
20 1041 1
20 1097 1
20 1209 1
20 1545 1
20 1569 1
20 2049 1
20 2050 1
20 2053 1
20 2057 1
20 2113 1
20 2121 1
20 2142 1
20 2177 1
20 2562 1
20 2641 1
20 3201 1
21 1 1
21 2 1
21 3 1
21 5 1
21 6 1
21 7 1
21 9 1
21 10 1
21 17 1
21 18 1
21 22 1
21 33 1
21 49 1
21 65 1
21 97 1
21 98 1
21 129 1
21 131 1
21 138 1
21 257 1
21 265 1
21 269 1
21 289 1
21 290 1
21 293 1
21 294 1
21 321 1
21 386 1
21 393 1
21 417 1
21 433 1
21 513 1
21 515 1
21 521 1
21 522 1
21 524 1
21 529 1
21 545 1
21 546 1
21 548 1
21 556 1
21 570 1
21 648 1
21 681 1
21 757 1
21 803 1
21 834 1
21 866 1
21 867 1
21 899 1
21 901 1
21 905 1
21 962 1
21 1025 1
21 1026 1
21 1035 1
21 1041 1
21 1083 1
21 1089 1
21 1093 1
21 1097 1
21 1153 1
21 1281 1
21 1290 1
21 1585 1
21 1602 1
21 1793 1
21 1985 1
21 2049 1
21 2061 1
21 2064 1
21 2081 1
21 2130 1
21 2178 1
21 2218 1
21 2305 1
21 2329 1
21 2355 1
21 2470 1
21 2561 1
21 2569 1
21 2597 1
21 2609 1
21 2612 1
21 2653 1
21 2817 1
21 2821 1
21 3073 1
21 3153 1
21 3459 1
21 3605 1
21 3970 1
22 1 1
22 11 1
22 17 1
22 21 1
22 35 1
22 41 1
22 101 1
22 130 1
22 145 1
22 157 1
22 385 1
22 393 1
22 513 1
22 707 1
22 773 1
22 899 1
22 929 1
22 1025 1
22 1033 1
22 1043 1
22 1051 1
22 1058 1
22 1091 1
22 1099 1
22 1185 1
22 1281 1
22 1298 1
22 1609 1
22 2081 1
22 2087 1
22 2113 1
22 2305 1
22 2445 1
22 2599 1
22 2690 1
22 2753 1
22 3073 1
23 5 1
23 6 1
23 11 1
23 32 1
23 34 1
23 35 1
23 39 1
23 65 1
23 69 1
23 73 1
23 130 1
23 133 1
23 257 1
23 258 1
23 297 1
23 393 1
23 441 1
23 450 1
23 514 1
23 529 1
23 581 1
23 590 1
23 593 1
23 769 1
23 1026 1
23 1065 1
23 1089 1
23 1153 1
23 1289 1
23 2049 1
23 2052 1
23 2084 1
23 2197 1
23 3812 1
23 3858 1
24 6 1
24 17 1
24 89 1
24 130 1
24 273 1
24 771 1
24 969 1
24 1057 1
24 2305 1
24 2885 1
24 3841 1
25 1 1
25 7 1
25 9 1
25 17 1
25 19 1
25 33 1
25 38 1
25 39 1
25 54 1
25 58 1
25 66 1
25 67 1
25 70 1
25 74 1
25 98 1
25 102 1
25 117 1
25 130 1
25 133 1
25 153 1
25 178 1
25 180 1
25 194 1
25 209 1
25 228 1
25 257 1
25 258 1
25 393 1
25 451 1
25 513 1
25 514 1
25 515 1
25 529 1
25 533 1
25 545 1
25 565 1
25 577 1
25 644 1
25 682 1
25 773 1
25 809 1
25 854 1
25 909 1
25 913 1
25 1025 1
25 1030 1
25 1033 1
25 1037 1
25 1041 1
25 1044 1
25 1057 1
25 1077 1
25 1099 1
25 1155 1
25 1252 1
25 1281 1
25 1282 1
25 1316 1
25 1345 1
25 1443 1
25 1477 1
25 1537 1
25 1681 1
25 1797 1
25 1841 1
25 2049 1
25 2051 1
25 2053 1
25 2055 1
25 2065 1
25 2066 1
25 2073 1
25 2081 1
25 2114 1
25 2118 1
25 2119 1
25 2122 1
25 2178 1
25 2213 1
25 2250 1
25 2307 1
25 2341 1
25 2355 1
25 2401 1
25 2561 1
25 2565 1
25 2594 1
25 2625 1
25 2719 1
25 3091 1
25 3177 1
25 3234 1
25 3908 1
26 1 1
26 5 1
26 65 1
26 81 1
26 97 1
26 130 1
26 169 1
26 257 1
26 261 1
26 401 1
26 533 1
26 577 1
26 641 1
26 845 1
26 909 1
26 1033 1
26 1041 1
26 1043 1
26 1045 1
26 1409 1
26 1601 1
26 2049 1
26 2093 1
26 2179 1
26 3074 1
26 3525 1
27 1 1
27 2 1
27 13 1
27 33 1
27 35 1
27 49 1
27 66 1
27 121 1
27 129 1
27 143 1
27 145 1
27 196 1
27 269 1
27 321 1
27 385 1
27 425 1
27 537 1
27 538 1
27 559 1
27 577 1
27 610 1
27 713 1
27 770 1
27 900 1
27 1027 1
27 1029 1
27 1059 1
27 1090 1
27 1128 1
27 1145 1
27 1329 1
27 1377 1
27 1415 1
27 2049 1
27 2051 1
27 2061 1
27 2081 1
27 2229 1
27 2297 1
27 2626 1
27 2817 1
27 3113 1
27 3127 1
27 3174 1
28 2 1
28 38 1
28 402 1
28 513 1
28 1025 1
28 1026 1
28 1281 1
28 1537 1
28 1549 1
28 2073 1
28 2081 1
28 3073 1
28 3479 1
28 3509 1
29 1 1
29 9 1
29 10 1
29 19 1
29 34 1
29 51 1
29 65 1
29 130 1
29 161 1
29 257 1
29 321 1
29 325 1
29 333 1
29 341 1
29 444 1
29 513 1
29 522 1
29 537 1
29 545 1
29 645 1
29 674 1
29 834 1
29 1025 1
29 1029 1
29 1048 1
29 1059 1
29 1073 1
29 1093 1
29 1161 1
29 1529 1
29 1537 1
29 1571 1
29 1574 1
29 2054 1
29 2105 1
29 2119 1
29 2313 1
29 2569 1
29 2583 1
29 3073 1
30 1 1
30 97 1
30 133 1
30 1025 1
30 1105 1
30 1295 1
30 1417 1
30 1681 1
30 3395 1
31 1 1
31 3 1
31 6 1
31 20 1
31 42 1
31 81 1
31 101 1
31 114 1
31 131 1
31 142 1
31 193 1
31 257 1
31 425 1
31 1063 1
31 2883 1
31 3270 1
31 3365 1
32 23 1
32 1554 1
32 2113 1
33 1 1
33 2 1
33 3 1
33 4 1
33 5 1
33 6 1
33 7 1
33 8 1
33 9 1
33 11 1
33 13 1
33 17 1
33 19 1
33 21 1
33 25 1
33 27 1
33 34 1
33 35 1
33 41 1
33 45 1
33 48 1
33 49 1
33 54 1
33 57 1
33 59 1
33 65 1
33 66 1
33 67 1
33 69 1
33 74 1
33 81 1
33 83 1
33 85 1
33 93 1
33 97 1
33 100 1
33 101 1
33 105 1
33 114 1
33 129 1
33 131 1
33 133 1
33 137 1
33 141 1
33 143 1
33 145 1
33 146 1
33 148 1
33 161 1
33 166 1
33 179 1
33 182 1
33 193 1
33 194 1
33 196 1
33 197 1
33 200 1
33 210 1
33 225 1
33 229 1
33 257 1
33 261 1
33 262 1
33 265 1
33 267 1
33 269 1
33 273 1
33 275 1
33 279 1
33 289 1
33 290 1
33 291 1
33 297 1
33 308 1
33 311 1
33 321 1
33 322 1
33 324 1
33 325 1
33 330 1
33 337 1
33 369 1
33 385 1
33 387 1
33 390 1
33 425 1
33 453 1
33 513 1
33 514 1
33 515 1
33 517 1
33 520 1
33 521 1
33 531 1
33 533 1
33 545 1
33 555 1
33 561 1
33 566 1
33 577 1
33 578 1
33 591 1
33 593 1
33 620 1
33 641 1
33 643 1
33 657 1
33 661 1
33 682 1
33 690 1
33 709 1
33 713 1
33 769 1
33 770 1
33 773 1
33 776 1
33 787 1
33 801 1
33 840 1
33 845 1
33 865 1
33 916 1
33 955 1
33 1025 1
33 1027 1
33 1029 1
33 1030 1
33 1035 1
33 1041 1
33 1042 1
33 1046 1
33 1057 1
33 1058 1
33 1059 1
33 1061 1
33 1063 1
33 1065 1
33 1077 1
33 1081 1
33 1083 1
33 1091 1
33 1098 1
33 1105 1
33 1108 1
33 1109 1
33 1153 1
33 1154 1
33 1155 1
33 1159 1
33 1171 1
33 1187 1
33 1223 1
33 1241 1
33 1245 1
33 1281 1
33 1286 1
33 1297 1
33 1307 1
33 1351 1
33 1359 1
33 1414 1
33 1464 1
33 1537 1
33 1538 1
33 1562 1
33 1565 1
33 1793 1
33 1795 1
33 1801 1
33 1809 1
33 1889 1
33 1955 1
33 1958 1
33 2020 1
33 2025 1
33 2049 1
33 2050 1
33 2051 1
33 2053 1
33 2057 1
33 2059 1
33 2067 1
33 2069 1
33 2070 1
33 2075 1
33 2083 1
33 2085 1
33 2087 1
33 2097 1
33 2113 1
33 2114 1
33 2115 1
33 2117 1
33 2129 1
33 2137 1
33 2163 1
33 2177 1
33 2183 1
33 2186 1
33 2192 1
33 2209 1
33 2217 1
33 2245 1
33 2265 1
33 2277 1
33 2285 1
33 2297 1
33 2309 1
33 2314 1
33 2321 1
33 2339 1
33 2365 1
33 2369 1
33 2377 1
33 2433 1
33 2561 1
33 2562 1
33 2577 1
33 2625 1
33 2705 1
33 2710 1
33 2725 1
33 2785 1
33 2851 1
33 2921 1
33 2964 1
33 3013 1
33 3075 1
33 3077 1
33 3078 1
33 3081 1
33 3083 1
33 3089 1
33 3090 1
33 3122 1
33 3201 1
33 3213 1
33 3329 1
33 3330 1
33 3333 1
33 3355 1
33 3425 1
33 3473 1
33 3585 1
33 3654 1
33 3663 1
33 3665 1
33 3754 1
33 3907 1
34 1 1
34 2 1
34 3 1
34 5 1
34 7 1
34 9 1
34 10 1
34 11 1
34 13 1
34 17 1
34 18 1
34 19 1
34 23 1
34 29 1
34 33 1
34 40 1
34 41 1
34 65 1
34 67 1
34 69 1
34 73 1
34 113 1
34 129 1
34 133 1
34 137 1
34 161 1
34 177 1
34 257 1
34 259 1
34 262 1
34 265 1
34 273 1
34 297 1
34 323 1
34 330 1
34 341 1
34 513 1
34 517 1
34 523 1
34 545 1
34 546 1
34 577 1
34 581 1
34 591 1
34 594 1
34 595 1
34 611 1
34 643 1
34 769 1
34 897 1
34 1025 1
34 1026 1
34 1027 1
34 1030 1
34 1033 1
34 1073 1
34 1090 1
34 1093 1
34 1153 1
34 1158 1
34 1162 1
34 1193 1
34 1219 1
34 1235 1
34 1346 1
34 1347 1
34 1569 1
34 1575 1
34 1579 1
34 1929 1
34 1993 1
34 2049 1
34 2050 1
34 2081 1
34 2084 1
34 2114 1
34 2129 1
34 2180 1
34 2193 1
34 2195 1
34 2241 1
34 2305 1
34 2314 1
34 2369 1
34 2497 1
34 2593 1
34 2817 1
34 3085 1
34 3157 1
34 3369 1
34 3589 1
34 3653 1
34 3714 1
34 3747 1
35 1 1
35 2 1
35 3 1
35 5 1
35 6 1
35 7 1
35 9 1
35 17 1
35 20 1
35 22 1
35 23 1
35 27 1
35 33 1
35 41 1
35 58 1
35 65 1
35 67 1
35 70 1
35 73 1
35 74 1
35 76 1
35 121 1
35 129 1
35 130 1
35 146 1
35 155 1
35 171 1
35 182 1
35 245 1
35 257 1
35 258 1
35 259 1
35 261 1
35 262 1
35 279 1
35 289 1
35 294 1
35 329 1
35 332 1
35 386 1
35 410 1
35 417 1
35 515 1
35 521 1
35 545 1
35 553 1
35 577 1
35 578 1
35 581 1
35 647 1
35 649 1
35 654 1
35 669 1
35 777 1
35 938 1
35 1025 1
35 1026 1
35 1027 1
35 1051 1
35 1061 1
35 1069 1
35 1074 1
35 1097 1
35 1153 1
35 1161 1
35 1190 1
35 1281 1
35 1287 1
35 1315 1
35 1419 1
35 1541 1
35 1562 1
35 1665 1
35 1801 1
35 1804 1
35 1822 1
35 1833 1
35 2049 1
35 2050 1
35 2051 1
35 2053 1
35 2065 1
35 2073 1
35 2085 1
35 2181 1
35 2307 1
35 2323 1
35 2369 1
35 2378 1
35 2466 1
35 2481 1
35 2562 1
35 2581 1
35 2593 1
35 2657 1
35 2694 1
35 3093 1
35 3125 1
35 3409 1
35 3457 1
35 3476 1
35 3585 1
35 3629 1
35 3723 1
36 1 1
36 3 1
36 11 1
36 15 1
36 19 1
36 49 1
36 65 1
36 67 1
36 68 1
36 69 1
36 97 1
36 146 1
36 153 1
36 213 1
36 257 1
36 265 1
36 266 1
36 267 1
36 513 1
36 641 1
36 769 1
36 1025 1
36 1026 1
36 1139 1
36 1153 1
36 1285 1
36 2049 1
36 2050 1
36 2129 1
36 2259 1
36 2383 1
36 2497 1
36 2509 1
36 2561 1
36 2570 1
36 2577 1
36 2643 1
36 2725 1
36 2977 1
36 2987 1
36 3242 1
37 1 1
37 2 1
37 3 1
37 7 1
37 9 1
37 17 1
37 18 1
37 41 1
37 50 1
37 65 1
37 77 1
37 129 1
37 130 1
37 133 1
37 147 1
37 153 1
37 162 1
37 166 1
37 173 1
37 185 1
37 209 1
37 257 1
37 269 1
37 305 1
37 321 1
37 325 1
37 341 1
37 457 1
37 513 1
37 521 1
37 522 1
37 579 1
37 593 1
37 609 1
37 667 1
37 705 1
37 708 1
37 725 1
37 769 1
37 771 1
37 774 1
37 785 1
37 961 1
37 1025 1
37 1026 1
37 1028 1
37 1033 1
37 1035 1
37 1041 1
37 1043 1
37 1057 1
37 1062 1
37 1089 1
37 1097 1
37 1100 1
37 1160 1
37 1281 1
37 1289 1
37 1291 1
37 1409 1
37 1425 1
37 1537 1
37 1931 1
37 2070 1
37 2081 1
37 2082 1
37 2091 1
37 2186 1
37 2225 1
37 2305 1
37 2313 1
37 2325 1
37 2339 1
37 2563 1
37 2566 1
37 2690 1
37 3033 1
37 3081 1
37 3090 1
37 3169 1
37 3213 1
37 3215 1
37 3217 1
37 3617 1
38 2 1
38 3 1
38 25 1
38 28 1
38 67 1
38 77 1
38 121 1
38 138 1
38 147 1
38 209 1
38 249 1
38 257 1
38 329 1
38 553 1
38 565 1
38 611 1
38 771 1
38 786 1
38 881 1
38 1058 1
38 1186 1
38 1281 1
38 1793 1
38 1797 1
38 1859 1
38 2081 1
38 2115 1
38 2289 1
38 3073 1
38 3077 1
38 3462 1
39 1 1
39 2 1
39 4 1
39 5 1
39 23 1
39 25 1
39 65 1
39 161 1
39 225 1
39 257 1
39 404 1
39 513 1
39 515 1
39 579 1
39 661 1
39 705 1
39 769 1
39 778 1
39 1058 1
39 1153 1
39 1230 1
39 1244 1
39 1553 1
39 1569 1
39 1602 1
39 2049 1
39 2145 1
39 2177 1
39 2194 1
39 2305 1
39 2417 1
39 2474 1
39 3086 1
39 3364 1
39 3402 1
40 2 1
40 3 1
40 11 1
40 34 1
40 50 1
40 65 1
40 66 1
40 73 1
40 161 1
40 2049 1
40 2081 1
40 2236 1
40 2305 1
41 1 1
41 3 1
41 4 1
41 5 1
41 6 1
41 7 1
41 11 1
41 13 1
41 18 1
41 22 1
41 33 1
41 34 1
41 35 1
41 37 1
41 65 1
41 69 1
41 84 1
41 130 1
41 137 1
41 139 1
41 165 1
41 182 1
41 201 1
41 257 1
41 261 1
41 263 1
41 273 1
41 307 1
41 324 1
41 337 1
41 385 1
41 389 1
41 394 1
41 417 1
41 433 1
41 442 1
41 449 1
41 513 1
41 517 1
41 521 1
41 529 1
41 535 1
41 583 1
41 593 1
41 597 1
41 613 1
41 771 1
41 772 1
41 841 1
41 869 1
41 901 1
41 1025 1
41 1026 1
41 1027 1
41 1029 1
41 1041 1
41 1047 1
41 1073 1
41 1089 1
41 1093 1
41 1154 1
41 1156 1
41 1157 1
41 1161 1
41 1163 1
41 1378 1
41 1537 1
41 1538 1
41 1542 1
41 1545 1
41 1605 1
41 1673 1
41 1795 1
41 1826 1
41 2049 1
41 2052 1
41 2055 1
41 2067 1
41 2098 1
41 2113 1
41 2114 1
41 2178 1
41 2179 1
41 2186 1
41 2275 1
41 2305 1
41 2308 1
41 2565 1
41 2590 1
41 2657 1
41 3137 1
41 3149 1
41 3269 1
41 3330 1
41 3601 1
42 1 1
42 2 1
42 5 1
42 19 1
42 31 1
42 65 1
42 83 1
42 145 1
42 193 1
42 257 1
42 261 1
42 269 1
42 322 1
42 513 1
42 520 1
42 533 1
42 1025 1
42 1044 1
42 1117 1
42 1218 1
42 1283 1
42 1539 1
42 1666 1
42 1809 1
42 2054 1
42 2065 1
42 2076 1
42 2115 1
42 2182 1
42 2201 1
42 2244 1
42 2305 1
42 2438 1
42 3073 1
42 3079 1
42 3283 1
42 3590 1
42 3715 1
43 1 1
43 3 1
43 5 1
43 6 1
43 65 1
43 69 1
43 73 1
43 79 1
43 130 1
43 149 1
43 257 1
43 265 1
43 297 1
43 513 1
43 521 1
43 554 1
43 641 1
43 787 1
43 833 1
43 1035 1
43 1047 1
43 1153 1
43 1330 1
43 1417 1
43 1601 1
43 2051 1
43 2053 1
43 2065 1
43 2385 1
43 2569 1
43 3331 1
44 3 1
44 6 1
44 73 1
44 197 1
44 261 1
44 515 1
44 593 1
44 661 1
44 1627 1
44 2114 1
44 2117 1
44 2125 1
45 1 1
45 2 1
45 4 1
45 5 1
45 7 1
45 9 1
45 10 1
45 33 1
45 65 1
45 66 1
45 85 1
45 129 1
45 145 1
45 149 1
45 161 1
45 211 1
45 258 1
45 260 1
45 513 1
45 565 1
45 579 1
45 1028 1
45 1057 1
45 1089 1
45 1091 1
45 1153 1
45 1323 1
45 1569 1
45 1585 1
45 2161 1
45 2249 1
45 2325 1
45 2561 1
45 2833 1
45 3625 1
46 1 1
46 57 1
46 149 1
46 545 1
46 1130 1
46 2060 1
46 2098 1
46 2113 1
46 2369 1
46 2370 1
46 2947 1
46 3137 1
47 10 1
47 193 1
47 273 1
47 522 1
47 548 1
47 660 1
47 705 1
47 777 1
47 2057 1
47 2149 1
47 2953 1
48 33 1
48 257 1
48 1025 1
49 1 1
49 3 1
49 4 1
49 9 1
49 14 1
49 18 1
49 21 1
49 27 1
49 33 1
49 36 1
49 71 1
49 129 1
49 135 1
49 141 1
49 177 1
49 264 1
49 265 1
49 266 1
49 269 1
49 283 1
49 341 1
49 357 1
49 389 1
49 394 1
49 423 1
49 497 1
49 513 1
49 514 1
49 515 1
49 519 1
49 521 1
49 526 1
49 529 1
49 530 1
49 538 1
49 545 1
49 557 1
49 627 1
49 649 1
49 659 1
49 674 1
49 709 1
49 770 1
49 805 1
49 817 1
49 833 1
49 837 1
49 1025 1
49 1026 1
49 1037 1
49 1058 1
49 1059 1
49 1154 1
49 1162 1
49 1265 1
49 1281 1
49 1283 1
49 1346 1
49 1477 1
49 1539 1
49 1828 1
49 2049 1
49 2050 1
49 2055 1
49 2057 1
49 2083 1
49 2124 1
49 2137 1
49 2150 1
49 2181 1
49 2187 1
49 2305 1
49 2333 1
49 2433 1
49 2473 1
49 2506 1
49 2586 1
49 2625 1
49 3074 1
49 3079 1
49 3105 1
49 3369 1
49 3411 1
49 3586 1
49 3649 1
49 3876 1
50 9 1
50 17 1
50 37 1
50 40 1
50 133 1
50 137 1
50 265 1
50 271 1
50 301 1
50 545 1
50 585 1
50 843 1
50 1025 1
50 1047 1
50 1058 1
50 1113 1
50 1185 1
50 1285 1
50 1409 1
50 1548 1
50 2055 1
50 2071 1
50 2145 1
50 2197 1
50 2355 1
50 2369 1
50 2377 1
50 2563 1
50 3601 1
51 9 1
51 10 1
51 13 1
51 17 1
51 29 1
51 73 1
51 97 1
51 129 1
51 150 1
51 515 1
51 529 1
51 545 1
51 578 1
51 579 1
51 593 1
51 625 1
51 665 1
51 897 1
51 1026 1
51 1173 1
51 1185 1
51 1549 1
51 1611 1
51 1666 1
51 2053 1
51 2062 1
51 2181 1
51 2241 1
51 2306 1
51 2309 1
51 2325 1
51 2595 1
51 3177 1
52 1 1
52 65 1
52 257 1
52 262 1
52 289 1
52 521 1
52 1074 1
52 1155 1
52 1161 1
52 1425 1
52 1537 1
52 1553 1
52 1939 1
52 2449 1
52 3257 1
52 3329 1
52 3473 1
53 10 1
53 18 1
53 19 1
53 65 1
53 97 1
53 98 1
53 115 1
53 129 1
53 130 1
53 143 1
53 145 1
53 154 1
53 194 1
53 210 1
53 329 1
53 338 1
53 513 1
53 561 1
53 582 1
53 583 1
53 590 1
53 649 1
53 778 1
53 1027 1
53 1042 1
53 1218 1
53 1541 1
53 1545 1
53 1546 1
53 1601 1
53 1697 1
53 2049 1
53 2051 1
53 2052 1
53 2065 1
53 2115 1
53 2177 1
53 2209 1
53 2313 1
53 2374 1
53 2629 1
53 2753 1
53 2832 1
53 3145 1
53 3715 1
54 1 1
54 3 1
54 17 1
54 25 1
54 33 1
54 161 1
54 273 1
54 545 1
54 1043 1
54 1044 1
54 1667 1
54 2066 1
54 2113 1
54 2177 1
55 9 1
55 577 1
55 1026 1
55 1097 1
55 1201 1
55 2124 1
55 2167 1
56 65 1
56 681 1
56 836 1
56 1033 1
56 1094 1
56 2306 1
57 1 1
57 2 1
57 3 1
57 5 1
57 33 1
57 46 1
57 65 1
57 73 1
57 75 1
57 80 1
57 84 1
57 132 1
57 166 1
57 274 1
57 289 1
57 345 1
57 537 1
57 545 1
57 577 1
57 578 1
57 580 1
57 617 1
57 643 1
57 775 1
57 940 1
57 961 1
57 1025 1
57 1028 1
57 1077 1
57 1179 1
57 1265 1
57 1293 1
57 1411 1
57 2050 1
57 2089 1
57 2113 1
57 2177 1
57 2569 1
57 3077 1
57 3201 1
57 3203 1
57 3393 1
57 3445 1
57 3654 1
58 7 1
58 25 1
58 35 1
58 137 1
58 202 1
58 209 1
58 257 1
58 281 1
58 291 1
58 773 1
58 1537 1
58 1539 1
58 2049 1
58 2081 1
58 2369 1
58 2373 1
58 2753 1
58 2973 1
59 9 1
59 17 1
59 33 1
59 129 1
59 130 1
59 209 1
59 257 1
59 406 1
59 585 1
59 705 1
59 1025 1
59 1049 1
59 1162 1
59 1537 1
59 2084 1
60 209 1
60 529 1
60 1859 1
60 3268 1
61 485 1
61 769 1
61 2049 1
61 2115 1
61 2149 1
62 2049 1
63 9 1
63 130 1
63 2114 1
64 131 1
64 132 1
65 1 1
65 2 1
65 3 1
65 4 1
65 5 1
65 6 1
65 7 1
65 8 1
65 9 1
65 10 1
65 11 1
65 13 1
65 17 1
65 18 1
65 19 1
65 21 1
65 23 1
65 26 1
65 29 1
65 33 1
65 34 1
65 35 1
65 36 1
65 37 1
65 39 1
65 40 1
65 41 1
65 42 1
65 43 1
65 45 1
65 52 1
65 53 1
65 56 1
65 57 1
65 66 1
65 67 1
65 68 1
65 69 1
65 72 1
65 73 1
65 77 1
65 82 1
65 97 1
65 101 1
65 107 1
65 109 1
65 129 1
65 130 1
65 131 1
65 133 1
65 134 1
65 149 1
65 153 1
65 155 1
65 161 1
65 162 1
65 163 1
65 164 1
65 165 1
65 169 1
65 179 1
65 181 1
65 193 1
65 194 1
65 195 1
65 196 1
65 198 1
65 202 1
65 209 1
65 215 1
65 225 1
65 226 1
65 241 1
65 257 1
65 258 1
65 259 1
65 261 1
65 265 1
65 269 1
65 272 1
65 273 1
65 274 1
65 284 1
65 289 1
65 290 1
65 291 1
65 293 1
65 298 1
65 299 1
65 319 1
65 325 1
65 326 1
65 327 1
65 338 1
65 340 1
65 372 1
65 377 1
65 385 1
65 393 1
65 394 1
65 402 1
65 408 1
65 418 1
65 433 1
65 441 1
65 445 1
65 513 1
65 514 1
65 515 1
65 517 1
65 520 1
65 521 1
65 529 1
65 530 1
65 531 1
65 535 1
65 542 1
65 545 1
65 547 1
65 549 1
65 562 1
65 577 1
65 582 1
65 589 1
65 594 1
65 617 1
65 641 1
65 642 1
65 643 1
65 645 1
65 651 1
65 667 1
65 681 1
65 689 1
65 769 1
65 771 1
65 797 1
65 801 1
65 805 1
65 837 1
65 858 1
65 874 1
65 897 1
65 899 1
65 906 1
65 929 1
65 945 1
65 1025 1
65 1026 1
65 1027 1
65 1029 1
65 1032 1
65 1033 1
65 1034 1
65 1036 1
65 1039 1
65 1041 1
65 1042 1
65 1043 1
65 1051 1
65 1054 1
65 1057 1
65 1106 1
65 1121 1
65 1153 1
65 1157 1
65 1169 1
65 1170 1
65 1187 1
65 1251 1
65 1281 1
65 1284 1
65 1285 1
65 1298 1
65 1300 1
65 1329 1
65 1383 1
65 1409 1
65 1425 1
65 1433 1
65 1442 1
65 1486 1
65 1537 1
65 1538 1
65 1539 1
65 1555 1
65 1561 1
65 1569 1
65 1573 1
65 1576 1
65 1606 1
65 1629 1
65 1640 1
65 1646 1
65 1675 1
65 1701 1
65 1710 1
65 1793 1
65 1818 1
65 1913 1
65 1942 1
65 2049 1
65 2050 1
65 2051 1
65 2052 1
65 2053 1
65 2054 1
65 2057 1
65 2061 1
65 2067 1
65 2069 1
65 2075 1
65 2076 1
65 2081 1
65 2109 1
65 2113 1
65 2115 1
65 2119 1
65 2121 1
65 2129 1
65 2145 1
65 2155 1
65 2169 1
65 2177 1
65 2178 1
65 2179 1
65 2181 1
65 2185 1
65 2189 1
65 2209 1
65 2273 1
65 2297 1
65 2305 1
65 2306 1
65 2331 1
65 2337 1
65 2356 1
65 2433 1
65 2436 1
65 2441 1
65 2442 1
65 2445 1
65 2465 1
65 2529 1
65 2566 1
65 2569 1
65 2573 1
65 2593 1
65 2615 1
65 2625 1
65 2634 1
65 2643 1
65 2667 1
65 2701 1
65 2817 1
65 2821 1
65 3073 1
65 3074 1
65 3081 1
65 3083 1
65 3087 1
65 3093 1
65 3105 1
65 3109 1
65 3121 1
65 3138 1
65 3141 1
65 3158 1
65 3168 1
65 3201 1
65 3205 1
65 3208 1
65 3219 1
65 3285 1
65 3347 1
65 3356 1
65 3364 1
65 3365 1
65 3401 1
65 3588 1
65 3601 1
65 3605 1
65 3618 1
65 3843 1
65 3874 1
65 3922 1
66 1 1
66 3 1
66 5 1
66 10 1
66 12 1
66 17 1
66 18 1
66 19 1
66 20 1
66 25 1
66 27 1
66 33 1
66 40 1
66 45 1
66 65 1
66 67 1
66 77 1
66 81 1
66 97 1
66 113 1
66 130 1
66 133 1
66 137 1
66 159 1
66 163 1
66 165 1
66 169 1
66 195 1
66 227 1
66 257 1
66 258 1
66 259 1
66 261 1
66 265 1
66 267 1
66 269 1
66 273 1
66 285 1
66 286 1
66 292 1
66 294 1
66 386 1
66 388 1
66 401 1
66 409 1
66 427 1
66 466 1
66 513 1
66 515 1
66 521 1
66 577 1
66 578 1
66 585 1
66 614 1
66 641 1
66 654 1
66 737 1
66 750 1
66 769 1
66 770 1
66 833 1
66 899 1
66 1025 1
66 1027 1
66 1033 1
66 1041 1
66 1081 1
66 1089 1
66 1201 1
66 1206 1
66 1297 1
66 1539 1
66 1541 1
66 1545 1
66 1610 1
66 1665 1
66 1793 1
66 1843 1
66 1921 1
66 1966 1
66 2057 1
66 2062 1
66 2069 1
66 2082 1
66 2083 1
66 2103 1
66 2113 1
66 2118 1
66 2147 1
66 2179 1
66 2185 1
66 2209 1
66 2225 1
66 2258 1
66 2369 1
66 2401 1
66 2563 1
66 2569 1
66 2575 1
66 2581 1
66 2603 1
66 2860 1
66 3011 1
66 3077 1
66 3082 1
66 3095 1
66 3145 1
66 3176 1
66 3713 1
66 4001 1
67 1 1
67 3 1
67 5 1
67 7 1
67 9 1
67 13 1
67 17 1
67 19 1
67 25 1
67 33 1
67 34 1
67 35 1
67 36 1
67 38 1
67 65 1
67 66 1
67 72 1
67 82 1
67 112 1
67 129 1
67 130 1
67 139 1
67 161 1
67 166 1
67 193 1
67 257 1
67 258 1
67 260 1
67 262 1
67 266 1
67 267 1
67 271 1
67 274 1
67 275 1
67 289 1
67 297 1
67 322 1
67 385 1
67 401 1
67 513 1
67 514 1
67 521 1
67 546 1
67 577 1
67 625 1
67 641 1
67 673 1
67 674 1
67 769 1
67 771 1
67 913 1
67 1025 1
67 1029 1
67 1032 1
67 1033 1
67 1037 1
67 1041 1
67 1051 1
67 1061 1
67 1153 1
67 1169 1
67 1219 1
67 1290 1
67 1345 1
67 1509 1
67 1569 1
67 1610 1
67 1613 1
67 1665 1
67 1670 1
67 1787 1
67 1793 1
67 2050 1
67 2071 1
67 2081 1
67 2082 1
67 2099 1
67 2113 1
67 2154 1
67 2180 1
67 2186 1
67 2203 1
67 2265 1
67 2308 1
67 2313 1
67 2385 1
67 2561 1
67 2585 1
67 2625 1
67 2689 1
67 2691 1
67 2705 1
67 2761 1
67 3073 1
67 3093 1
67 3362 1
67 3461 1
68 2 1
68 4 1
68 9 1
68 10 1
68 17 1
68 36 1
68 65 1
68 70 1
68 71 1
68 81 1
68 139 1
68 161 1
68 181 1
68 257 1
68 261 1
68 265 1
68 299 1
68 513 1
68 519 1
68 522 1
68 532 1
68 559 1
68 705 1
68 774 1
68 778 1
68 865 1
68 929 1
68 1025 1
68 1283 1
68 1293 1
68 1538 1
68 1643 1
68 1666 1
68 1845 1
68 2050 1
68 2055 1
68 2058 1
68 2065 1
68 2192 1
68 2337 1
68 2627 1
68 3231 1
68 3233 1
68 3313 1
68 3730 1
69 1 1
69 2 1
69 3 1
69 5 1
69 6 1
69 9 1
69 11 1
69 15 1
69 17 1
69 23 1
69 33 1
69 34 1
69 36 1
69 41 1
69 43 1
69 65 1
69 81 1
69 98 1
69 129 1
69 130 1
69 134 1
69 143 1
69 145 1
69 149 1
69 161 1
69 163 1
69 181 1
69 257 1
69 258 1
69 269 1
69 291 1
69 293 1
69 303 1
69 329 1
69 388 1
69 395 1
69 513 1
69 517 1
69 519 1
69 521 1
69 545 1
69 557 1
69 578 1
69 593 1
69 595 1
69 618 1
69 641 1
69 643 1
69 644 1
69 645 1
69 674 1
69 775 1
69 779 1
69 787 1
69 962 1
69 1025 1
69 1026 1
69 1029 1
69 1031 1
69 1033 1
69 1045 1
69 1055 1
69 1057 1
69 1061 1
69 1074 1
69 1156 1
69 1194 1
69 1257 1
69 1282 1
69 1289 1
69 1441 1
69 1475 1
69 1537 1
69 1543 1
69 1651 1
69 1668 1
69 1803 1
69 1810 1
69 2049 1
69 2050 1
69 2051 1
69 2053 1
69 2062 1
69 2065 1
69 2066 1
69 2077 1
69 2079 1
69 2081 1
69 2097 1
69 2117 1
69 2177 1
69 2185 1
69 2192 1
69 2209 1
69 2305 1
69 2306 1
69 2435 1
69 2458 1
69 2564 1
69 2565 1
69 2693 1
69 2695 1
69 2711 1
69 2849 1
69 3089 1
69 3105 1
69 3147 1
69 3203 1
69 3374 1
69 3777 1
69 3845 1
69 3867 1
70 1 1
70 3 1
70 9 1
70 17 1
70 25 1
70 35 1
70 68 1
70 130 1
70 161 1
70 177 1
70 265 1
70 386 1
70 513 1
70 537 1
70 1025 1
70 1089 1
70 1313 1
70 1539 1
70 1665 1
70 2049 1
70 2065 1
70 2137 1
70 2210 1
70 2305 1
70 2565 1
70 2595 1
70 2841 1
70 3171 1
70 3377 1
71 1 1
71 5 1
71 10 1
71 14 1
71 49 1
71 68 1
71 113 1
71 129 1
71 146 1
71 151 1
71 161 1
71 170 1
71 257 1
71 271 1
71 293 1
71 325 1
71 385 1
71 513 1
71 516 1
71 529 1
71 657 1
71 769 1
71 777 1
71 1093 1
71 1156 1
71 2049 1
71 2066 1
71 2185 1
71 2658 1
71 2882 1
71 3217 1
71 3585 1
72 2 1
72 5 1
72 65 1
72 67 1
72 129 1
72 257 1
72 529 1
72 533 1
72 804 1
72 876 1
72 1281 1
72 1713 1
72 2337 1
72 3681 1
73 1 1
73 2 1
73 5 1
73 6 1
73 7 1
73 9 1
73 17 1
73 23 1
73 34 1
73 35 1
73 40 1
73 43 1
73 44 1
73 51 1
73 57 1
73 65 1
73 74 1
73 84 1
73 86 1
73 105 1
73 129 1
73 133 1
73 137 1
73 142 1
73 145 1
73 161 1
73 163 1
73 165 1
73 169 1
73 173 1
73 195 1
73 206 1
73 209 1
73 257 1
73 258 1
73 264 1
73 265 1
73 289 1
73 297 1
73 339 1
73 396 1
73 417 1
73 454 1
73 513 1
73 517 1
73 525 1
73 529 1
73 533 1
73 538 1
73 550 1
73 585 1
73 609 1
73 613 1
73 628 1
73 643 1
73 645 1
73 648 1
73 674 1
73 707 1
73 740 1
73 769 1
73 801 1
73 1025 1
73 1027 1
73 1029 1
73 1031 1
73 1032 1
73 1033 1
73 1035 1
73 1042 1
73 1084 1
73 1094 1
73 1121 1
73 1161 1
73 1281 1
73 1282 1
73 1313 1
73 1318 1
73 1443 1
73 1542 1
73 1546 1
73 1570 1
73 1665 1
73 1799 1
73 2051 1
73 2052 1
73 2053 1
73 2054 1
73 2055 1
73 2057 1
73 2058 1
73 2074 1
73 2097 1
73 2105 1
73 2113 1
73 2135 1
73 2177 1
73 2182 1
73 2225 1
73 2244 1
73 2322 1
73 2339 1
73 2355 1
73 2389 1
73 2433 1
73 2505 1
73 2755 1
73 2965 1
73 3093 1
73 3111 1
73 3138 1
73 3158 1
73 3171 1
73 3329 1
73 3361 1
73 3585 1
73 3588 1
73 3625 1
73 3841 1
73 3847 1
73 3958 1
74 1 1
74 5 1
74 9 1
74 18 1
74 25 1
74 33 1
74 35 1
74 73 1
74 98 1
74 108 1
74 109 1
74 145 1
74 153 1
74 209 1
74 257 1
74 258 1
74 261 1
74 357 1
74 516 1
74 517 1
74 573 1
74 705 1
74 769 1
74 962 1
74 1028 1
74 1033 1
74 1571 1
74 1575 1
74 2017 1
74 2050 1
74 2057 1
74 2145 1
74 2305 1
74 2321 1
74 2467 1
74 2697 1
74 2825 1
74 3651 1
74 3875 1
75 3 1
75 4 1
75 5 1
75 9 1
75 17 1
75 57 1
75 132 1
75 145 1
75 259 1
75 313 1
75 385 1
75 386 1
75 417 1
75 531 1
75 533 1
75 562 1
75 653 1
75 769 1
75 781 1
75 897 1
75 1034 1
75 1209 1
75 1419 1
75 1430 1
75 1729 1
75 1865 1
75 2049 1
75 2065 1
75 2182 1
75 2306 1
75 2449 1
75 2562 1
75 3075 1
75 3587 1
76 35 1
76 131 1
76 294 1
76 519 1
76 579 1
76 769 1
76 865 1
76 1026 1
76 1027 1
76 2098 1
76 2374 1
77 1 1
77 9 1
77 17 1
77 37 1
77 38 1
77 65 1
77 66 1
77 81 1
77 88 1
77 130 1
77 145 1
77 193 1
77 198 1
77 260 1
77 273 1
77 290 1
77 428 1
77 513 1
77 515 1
77 547 1
77 673 1
77 770 1
77 1025 1
77 1035 1
77 1041 1
77 1049 1
77 1061 1
77 1097 1
77 1137 1
77 1179 1
77 1289 1
77 1796 1
77 2051 1
77 2053 1
77 2081 1
77 2305 1
77 2404 1
77 2625 1
77 2758 1
77 2825 1
77 3173 1
77 3329 1
77 3937 1
78 3 1
78 133 1
78 561 1
78 801 1
78 1297 1
78 2065 1
79 43 1
79 521 1
79 1162 1
79 1201 1
79 2177 1
79 2322 1
79 2370 1
79 2577 1
79 3075 1
79 3844 1
80 57 1
80 549 1
80 1026 1
81 1 1
81 2 1
81 3 1
81 5 1
81 7 1
81 9 1
81 10 1
81 17 1
81 19 1
81 26 1
81 31 1
81 33 1
81 66 1
81 68 1
81 69 1
81 77 1
81 83 1
81 129 1
81 131 1
81 161 1
81 167 1
81 179 1
81 209 1
81 242 1
81 257 1
81 258 1
81 259 1
81 260 1
81 263 1
81 266 1
81 275 1
81 291 1
81 292 1
81 293 1
81 307 1
81 385 1
81 387 1
81 389 1
81 513 1
81 514 1
81 519 1
81 521 1
81 522 1
81 549 1
81 554 1
81 561 1
81 565 1
81 567 1
81 577 1
81 585 1
81 621 1
81 634 1
81 646 1
81 651 1
81 663 1
81 685 1
81 771 1
81 776 1
81 1025 1
81 1057 1
81 1059 1
81 1065 1
81 1099 1
81 1100 1
81 1183 1
81 1281 1
81 1286 1
81 1293 1
81 1296 1
81 1297 1
81 1301 1
81 1310 1
81 1317 1
81 1348 1
81 1540 1
81 1545 1
81 1689 1
81 1793 1
81 2049 1
81 2051 1
81 2053 1
81 2057 1
81 2061 1
81 2069 1
81 2070 1
81 2078 1
81 2081 1
81 2083 1
81 2088 1
81 2097 1
81 2101 1
81 2115 1
81 2178 1
81 2180 1
81 2283 1
81 2307 1
81 2313 1
81 2337 1
81 2354 1
81 2521 1
81 2563 1
81 2564 1
81 2569 1
81 2602 1
81 2777 1
81 2881 1
81 3021 1
81 3073 1
81 3101 1
81 3106 1
81 3139 1
81 3278 1
81 3329 1
81 3334 1
81 3394 1
81 3466 1
81 3483 1
81 3523 1
81 3721 1
81 3992 1
82 1 1
82 17 1
82 65 1
82 67 1
82 101 1
82 129 1
82 137 1
82 193 1
82 210 1
82 257 1
82 273 1
82 285 1
82 321 1
82 449 1
82 513 1
82 523 1
82 547 1
82 561 1
82 585 1
82 641 1
82 673 1
82 674 1
82 745 1
82 785 1
82 965 1
82 1037 1
82 1066 1
82 1089 1
82 1601 1
82 1797 1
82 2049 1
82 2057 1
82 2065 1
82 2071 1
82 2074 1
82 2084 1
82 2250 1
82 2273 1
82 2305 1
82 2693 1
82 2822 1
82 3077 1
82 3121 1
82 3333 1
83 1 1
83 3 1
83 13 1
83 33 1
83 42 1
83 81 1
83 105 1
83 131 1
83 132 1
83 155 1
83 193 1
83 257 1
83 258 1
83 514 1
83 525 1
83 596 1
83 674 1
83 834 1
83 947 1
83 1283 1
83 1539 1
83 2065 1
83 2177 1
83 2203 1
83 2265 1
83 2567 1
83 2633 1
83 3203 1
83 3233 1
84 1 1
84 2 1
84 41 1
84 57 1
84 73 1
84 769 1
84 993 1
84 2053 1
84 2305 1
84 2433 1
84 2690 1
84 3083 1
84 3457 1
85 4 1
85 17 1
85 33 1
85 45 1
85 129 1
85 137 1
85 141 1
85 193 1
85 258 1
85 274 1
85 321 1
85 357 1
85 550 1
85 566 1
85 849 1
85 1075 1
85 2049 1
85 2054 1
85 2211 1
85 2566 1
85 3073 1
85 3074 1
85 3077 1
85 3087 1
85 3297 1
85 3908 1
86 1 1
86 73 1
86 257 1
86 409 1
86 584 1
86 1137 1
86 2049 1
86 2818 1
87 3 1
87 139 1
87 153 1
87 215 1
87 897 1
87 1026 1
87 1065 1
87 2437 1
87 2506 1
88 77 1
88 2049 1
88 2057 1
89 3 1
89 8 1
89 11 1
89 15 1
89 24 1
89 129 1
89 163 1
89 169 1
89 257 1
89 389 1
89 513 1
89 515 1
89 524 1
89 550 1
89 579 1
89 1026 1
89 1098 1
89 1162 1
89 1316 1
89 1665 1
89 1681 1
89 1937 1
89 2061 1
89 2178 1
89 2181 1
89 2309 1
89 2474 1
89 2817 1
89 3073 1
89 3075 1
89 3621 1
89 3641 1
90 1 1
90 529 1
90 545 1
90 773 1
90 1313 1
90 2335 1
90 2562 1
90 3074 1
90 3337 1
91 2 1
91 9 1
91 131 1
91 145 1
91 513 1
91 609 1
91 1043 1
91 1286 1
91 1553 1
91 2097 1
91 2098 1
91 2177 1
91 2193 1
91 2665 1
91 3221 1
92 14 1
92 1473 1
92 1829 1
93 1 1
93 9 1
93 18 1
93 33 1
93 161 1
93 521 1
93 646 1
93 1313 1
93 2179 1
93 2593 1
93 3073 1
93 3083 1
94 269 1
95 1 1
95 645 1
96 869 1
96 3073 1
97 1 1
97 2 1
97 3 1
97 5 1
97 6 1
97 9 1
97 17 1
97 21 1
97 26 1
97 30 1
97 33 1
97 36 1
97 51 1
97 53 1
97 65 1
97 66 1
97 113 1
97 131 1
97 133 1
97 135 1
97 145 1
97 146 1
97 161 1
97 167 1
97 257 1
97 261 1
97 269 1
97 273 1
97 281 1
97 283 1
97 289 1
97 290 1
97 322 1
97 337 1
97 345 1
97 361 1
97 385 1
97 389 1
97 513 1
97 515 1
97 577 1
97 581 1
97 641 1
97 675 1
97 769 1
97 771 1
97 773 1
97 794 1
97 801 1
97 850 1
97 872 1
97 885 1
97 1025 1
97 1027 1
97 1034 1
97 1035 1
97 1037 1
97 1041 1
97 1044 1
97 1046 1
97 1048 1
97 1143 1
97 1185 1
97 1202 1
97 1233 1
97 1281 1
97 1283 1
97 1286 1
97 1390 1
97 1425 1
97 1543 1
97 1549 1
97 1586 1
97 1613 1
97 1667 1
97 2049 1
97 2050 1
97 2058 1
97 2130 1
97 2134 1
97 2177 1
97 2193 1
97 2257 1
97 2291 1
97 2305 1
97 2321 1
97 2342 1
97 2369 1
97 2562 1
97 2563 1
97 2564 1
97 2583 1
97 2585 1
97 2594 1
97 2633 1
97 2705 1
97 2743 1
97 2822 1
97 2833 1
97 3073 1
97 3105 1
97 3153 1
97 3188 1
97 3220 1
97 3385 1
97 3587 1
97 3669 1
97 3718 1
97 3852 1
98 3 1
98 9 1
98 11 1
98 21 1
98 25 1
98 53 1
98 69 1
98 74 1
98 129 1
98 146 1
98 149 1
98 169 1
98 258 1
98 265 1
98 386 1
98 513 1
98 521 1
98 524 1
98 527 1
98 545 1
98 655 1
98 777 1
98 861 1
98 1025 1
98 1093 1
98 1185 1
98 1323 1
98 2057 1
98 2066 1
98 2069 1
98 2149 1
98 2305 1
98 2497 1
98 2505 1
98 3075 1
98 3097 1
98 3337 1
98 3586 1
99 5 1
99 12 1
99 129 1
99 137 1
99 210 1
99 258 1
99 323 1
99 389 1
99 401 1
99 433 1
99 517 1
99 519 1
99 545 1
99 585 1
99 660 1
99 1053 1
99 1057 1
99 1191 1
99 1331 1
99 1369 1
99 1537 1
99 1554 1
99 1697 1
99 2049 1
99 2115 1
99 2185 1
99 2209 1
99 2309 1
99 2346 1
99 2449 1
99 2598 1
99 2737 1
99 2825 1
99 3078 1
99 3137 1
99 3489 1
99 3601 1
99 3611 1
99 3649 1
99 3717 1
100 33 1
100 129 1
100 268 1
100 325 1
100 513 1
100 579 1
100 1153 1
100 1285 1
100 1537 1
100 1634 1
100 2822 1
100 3221 1
100 3845 1
101 2 1
101 18 1
101 22 1
101 31 1
101 33 1
101 65 1
101 82 1
101 129 1
101 257 1
101 302 1
101 513 1
101 521 1
101 522 1
101 609 1
101 641 1
101 661 1
101 849 1
101 1026 1
101 1033 1
101 1065 1
101 1173 1
101 1186 1
101 1619 1
101 2057 1
101 2066 1
101 2083 1
101 2103 1
101 2145 1
101 2562 1
101 2575 1
101 2625 1
101 2641 1
101 3074 1
101 3139 1
101 3338 1
102 25 1
102 131 1
102 386 1
102 521 1
102 698 1
102 2305 1
102 2465 1
102 4017 1
103 267 1
103 513 1
103 771 1
103 1027 1
103 2241 1
103 2561 1
103 2657 1
104 1 1
105 1 1
105 3 1
105 7 1
105 9 1
105 33 1
105 73 1
105 83 1
105 161 1
105 209 1
105 257 1
105 273 1
105 393 1
105 513 1
105 553 1
105 785 1
105 862 1
105 897 1
105 925 1
105 1027 1
105 1031 1
105 1037 1
105 1044 1
105 1074 1
105 1153 1
105 1164 1
105 1225 1
105 1281 1
105 1298 1
105 2087 1
105 2177 1
105 2189 1
105 2337 1
105 2562 1
105 3201 1
105 3217 1
106 5 1
106 1027 1
106 1041 1
106 1409 1
106 1605 1
106 2305 1
107 65 1
107 151 1
107 517 1
107 769 1
107 1045 1
107 1570 1
107 2054 1
108 1 1
108 74 1
108 2305 1
109 17 1
109 65 1
109 74 1
109 385 1
109 546 1
109 1034 1
109 1617 1
109 3841 1
110 113 1
110 322 1
110 851 1
110 1569 1
110 2905 1
110 3073 1
111 129 1
111 529 1
111 609 1
112 67 1
113 1 1
113 2 1
113 3 1
113 5 1
113 7 1
113 9 1
113 34 1
113 66 1
113 71 1
113 97 1
113 110 1
113 130 1
113 137 1
113 141 1
113 211 1
113 257 1
113 259 1
113 261 1
113 303 1
113 326 1
113 577 1
113 641 1
113 642 1
113 769 1
113 777 1
113 803 1
113 902 1
113 1025 1
113 1105 1
113 1281 1
113 1345 1
113 1793 1
113 2049 1
113 2057 1
113 2089 1
113 2243 1
113 2337 1
113 2345 1
113 2433 1
113 2818 1
113 3081 1
114 1 1
114 6 1
114 13 1
114 31 1
114 33 1
114 133 1
114 137 1
114 257 1
114 388 1
114 577 1
114 589 1
114 666 1
114 1025 1
114 1057 1
114 1097 1
114 1346 1
114 2369 1
114 2603 1
114 2949 1
114 3093 1
115 1 1
115 53 1
115 131 1
115 289 1
115 395 1
115 513 1
115 538 1
115 833 1
115 1161 1
115 1321 1
115 1638 1
115 2053 1
115 2065 1
115 2690 1
115 3113 1
115 3396 1
116 257 1
116 1029 1
116 1345 1
116 2049 1
117 1 1
117 17 1
117 25 1
117 194 1
117 1025 1
117 1027 1
117 1333 1
117 2116 1
117 2179 1
117 3083 1
117 3157 1
118 3 1
118 513 1
118 2305 1
119 1 1
119 122 1
119 139 1
119 1041 1
119 1297 1
120 268 1
121 3 1
121 27 1
121 35 1
121 38 1
121 263 1
121 274 1
121 289 1
121 647 1
121 665 1
121 1031 1
121 1537 1
121 2050 1
121 2321 1
121 2370 1
121 3851 1
122 1 1
122 119 1
122 517 1
122 1060 1
122 2114 1
122 2905 1
123 1089 1
123 1105 1
124 513 1
125 1 1
125 323 1
126 1625 1
126 2081 1
127 796 1
127 1025 1
127 1154 1
127 2054 1
128 1541 1
128 1891 1
129 1 1
129 2 1
129 3 1
129 4 1
129 5 1
129 6 1
129 9 1
129 10 1
129 11 1
129 17 1
129 18 1
129 19 1
129 20 1
129 21 1
129 27 1
129 33 1
129 34 1
129 35 1
129 37 1
129 45 1
129 49 1
129 51 1
129 53 1
129 59 1
129 65 1
129 67 1
129 69 1
129 71 1
129 72 1
129 73 1
129 81 1
129 82 1
129 85 1
129 89 1
129 98 1
129 99 1
129 100 1
129 101 1
129 111 1
129 130 1
129 131 1
129 132 1
129 133 1
129 137 1
129 138 1
129 145 1
129 147 1
129 149 1
129 154 1
129 161 1
129 162 1
129 169 1
129 171 1
129 177 1
129 187 1
129 195 1
129 201 1
129 233 1
129 241 1
129 257 1
129 258 1
129 259 1
129 261 1
129 262 1
129 264 1
129 265 1
129 270 1
129 273 1
129 281 1
129 289 1
129 290 1
129 295 1
129 301 1
129 312 1
129 313 1
129 321 1
129 322 1
129 324 1
129 330 1
129 345 1
129 401 1
129 424 1
129 442 1
129 457 1
129 474 1
129 493 1
129 511 1
129 513 1
129 514 1
129 515 1
129 516 1
129 517 1
129 518 1
129 520 1
129 521 1
129 523 1
129 525 1
129 529 1
129 530 1
129 535 1
129 536 1
129 545 1
129 547 1
129 549 1
129 557 1
129 561 1
129 577 1
129 579 1
129 587 1
129 588 1
129 589 1
129 594 1
129 595 1
129 601 1
129 603 1
129 609 1
129 610 1
129 627 1
129 650 1
129 659 1
129 673 1
129 674 1
129 683 1
129 705 1
129 771 1
129 772 1
129 777 1
129 781 1
129 783 1
129 785 1
129 803 1
129 809 1
129 828 1
129 873 1
129 897 1
129 898 1
129 914 1
129 1025 1
129 1026 1
129 1027 1
129 1035 1
129 1041 1
129 1049 1
129 1057 1
129 1058 1
129 1060 1
129 1089 1
129 1097 1
129 1105 1
129 1109 1
129 1154 1
129 1157 1
129 1162 1
129 1167 1
129 1169 1
129 1189 1
129 1217 1
129 1234 1
129 1249 1
129 1281 1
129 1291 1
129 1297 1
129 1298 1
129 1301 1
129 1305 1
129 1381 1
129 1421 1
129 1453 1
129 1474 1
129 1537 1
129 1542 1
129 1553 1
129 1555 1
129 1561 1
129 1567 1
129 1577 1
129 1580 1
129 1633 1
129 1713 1
129 1739 1
129 1793 1
129 1797 1
129 1804 1
129 1810 1
129 1925 1
129 2049 1
129 2050 1
129 2051 1
129 2057 1
129 2065 1
129 2066 1
129 2067 1
129 2070 1
129 2074 1
129 2077 1
129 2081 1
129 2085 1
129 2087 1
129 2089 1
129 2105 1
129 2113 1
129 2115 1
129 2121 1
129 2146 1
129 2177 1
129 2181 1
129 2198 1
129 2305 1
129 2306 1
129 2314 1
129 2315 1
129 2320 1
129 2323 1
129 2327 1
129 2363 1
129 2385 1
129 2436 1
129 2445 1
129 2513 1
129 2561 1
129 2577 1
129 2597 1
129 2629 1
129 2674 1
129 2721 1
129 2753 1
129 2761 1
129 2953 1
129 3073 1
129 3074 1
129 3079 1
129 3081 1
129 3097 1
129 3105 1
129 3117 1
129 3142 1
129 3151 1
129 3169 1
129 3201 1
129 3209 1
129 3221 1
129 3274 1
129 3329 1
129 3333 1
129 3393 1
129 3585 1
129 3619 1
129 3654 1
129 3673 1
129 3687 1
129 3717 1
129 3841 1
129 3842 1
129 3873 1
129 4033 1
130 1 1
130 3 1
130 5 1
130 9 1
130 11 1
130 13 1
130 17 1
130 19 1
130 22 1
130 23 1
130 24 1
130 25 1
130 26 1
130 29 1
130 35 1
130 37 1
130 41 1
130 43 1
130 53 1
130 59 1
130 63 1
130 65 1
130 66 1
130 67 1
130 69 1
130 70 1
130 77 1
130 113 1
130 129 1
130 133 1
130 137 1
130 141 1
130 149 1
130 153 1
130 163 1
130 193 1
130 198 1
130 258 1
130 259 1
130 264 1
130 271 1
130 327 1
130 391 1
130 401 1
130 513 1
130 514 1
130 516 1
130 518 1
130 521 1
130 529 1
130 537 1
130 538 1
130 545 1
130 557 1
130 585 1
130 603 1
130 609 1
130 611 1
130 625 1
130 677 1
130 679 1
130 706 1
130 795 1
130 849 1
130 900 1
130 919 1
130 1025 1
130 1026 1
130 1027 1
130 1042 1
130 1057 1
130 1058 1
130 1063 1
130 1089 1
130 1092 1
130 1105 1
130 1153 1
130 1161 1
130 1193 1
130 1301 1
130 1325 1
130 1537 1
130 1542 1
130 1611 1
130 1647 1
130 1665 1
130 1795 1
130 1826 1
130 1837 1
130 2049 1
130 2051 1
130 2065 1
130 2071 1
130 2083 1
130 2113 1
130 2195 1
130 2309 1
130 2322 1
130 2337 1
130 2372 1
130 2387 1
130 2401 1
130 2428 1
130 2453 1
130 2517 1
130 2565 1
130 2566 1
130 2945 1
130 3073 1
130 3090 1
130 3105 1
130 3149 1
130 3210 1
130 3257 1
130 3297 1
130 3305 1
130 3441 1
131 1 1
131 2 1
131 5 1
131 9 1
131 11 1
131 17 1
131 21 1
131 31 1
131 33 1
131 64 1
131 65 1
131 76 1
131 81 1
131 83 1
131 91 1
131 97 1
131 102 1
131 115 1
131 129 1
131 133 1
131 134 1
131 137 1
131 225 1
131 234 1
131 257 1
131 261 1
131 267 1
131 273 1
131 289 1
131 315 1
131 321 1
131 322 1
131 329 1
131 334 1
131 345 1
131 513 1
131 515 1
131 517 1
131 522 1
131 566 1
131 578 1
131 579 1
131 610 1
131 617 1
131 621 1
131 834 1
131 845 1
131 1025 1
131 1031 1
131 1035 1
131 1042 1
131 1058 1
131 1065 1
131 1069 1
131 1089 1
131 1105 1
131 1125 1
131 1143 1
131 1157 1
131 1161 1
131 1178 1
131 1199 1
131 1227 1
131 1282 1
131 1283 1
131 1290 1
131 1350 1
131 1361 1
131 1713 1
131 1797 1
131 1857 1
131 2051 1
131 2053 1
131 2057 1
131 2065 1
131 2225 1
131 2254 1
131 2305 1
131 2306 1
131 2379 1
131 2454 1
131 2629 1
131 2633 1
131 2721 1
131 3073 1
131 3085 1
131 3165 1
131 3229 1
131 3353 1
131 3369 1
131 3373 1
131 3412 1
131 3455 1
131 3458 1
131 3461 1
131 3624 1
131 3649 1
132 1 1
132 3 1
132 7 1
132 9 1
132 57 1
132 64 1
132 75 1
132 83 1
132 129 1
132 197 1
132 214 1
132 321 1
132 517 1
132 521 1
132 545 1
132 581 1
132 609 1
132 645 1
132 1153 1
132 1257 1
132 1289 1
132 1378 1
132 2049 1
132 2113 1
132 2125 1
132 2145 1
132 2177 1
132 2209 1
132 2423 1
132 2691 1
132 3083 1
132 3713 1
133 1 1
133 2 1
133 3 1
133 5 1
133 6 1
133 9 1
133 17 1
133 23 1
133 25 1
133 30 1
133 33 1
133 34 1
133 37 1
133 50 1
133 65 1
133 66 1
133 73 1
133 78 1
133 97 1
133 114 1
133 129 1
133 130 1
133 131 1
133 134 1
133 137 1
133 138 1
133 142 1
133 145 1
133 149 1
133 153 1
133 161 1
133 169 1
133 225 1
133 257 1
133 259 1
133 261 1
133 265 1
133 273 1
133 287 1
133 291 1
133 322 1
133 323 1
133 449 1
133 457 1
133 513 1
133 514 1
133 537 1
133 545 1
133 546 1
133 562 1
133 563 1
133 581 1
133 610 1
133 641 1
133 649 1
133 697 1
133 713 1
133 748 1
133 769 1
133 774 1
133 803 1
133 811 1
133 813 1
133 853 1
133 897 1
133 913 1
133 931 1
133 993 1
133 1025 1
133 1057 1
133 1066 1
133 1077 1
133 1089 1
133 1137 1
133 1174 1
133 1237 1
133 1281 1
133 1545 1
133 1558 1
133 1602 1
133 1924 1
133 2050 1
133 2051 1
133 2052 1
133 2057 1
133 2067 1
133 2097 1
133 2113 1
133 2141 1
133 2185 1
133 2361 1
133 2413 1
133 2503 1
133 2689 1
133 2693 1
133 2753 1
133 3265 1
133 3603 1
133 3713 1
133 3751 1
134 1 1
134 3 1
134 5 1
134 65 1
134 69 1
134 131 1
134 133 1
134 165 1
134 281 1
134 321 1
134 339 1
134 465 1
134 554 1
134 577 1
134 590 1
134 706 1
134 795 1
134 897 1
134 1032 1
134 1041 1
134 1090 1
134 1281 1
134 2059 1
134 2082 1
134 2145 1
134 2179 1
134 2340 1
134 2433 1
134 2561 1
134 2597 1
134 3097 1
134 3746 1
135 2 1
135 3 1
135 8 1
135 9 1
135 17 1
135 49 1
135 97 1
135 290 1
135 385 1
135 417 1
135 429 1
135 533 1
135 677 1
135 1045 1
135 1069 1
135 1122 1
135 1283 1
135 1541 1
135 1545 1
135 1574 1
135 1587 1
135 1795 1
135 1811 1
135 2049 1
135 2057 1
135 2065 1
135 2252 1
135 2315 1
135 3074 1
135 3589 1
135 3969 1
136 10 1
136 529 1
136 1605 1
136 1924 1
136 2083 1
137 1 1
137 2 1
137 4 1
137 5 1
137 7 1
137 10 1
137 17 1
137 19 1
137 33 1
137 34 1
137 41 1
137 50 1
137 58 1
137 66 1
137 73 1
137 82 1
137 85 1
137 99 1
137 113 1
137 114 1
137 129 1
137 130 1
137 131 1
137 133 1
137 139 1
137 153 1
137 177 1
137 197 1
137 209 1
137 257 1
137 261 1
137 273 1
137 281 1
137 294 1
137 305 1
137 321 1
137 379 1
137 513 1
137 516 1
137 521 1
137 522 1
137 526 1
137 529 1
137 546 1
137 548 1
137 581 1
137 627 1
137 664 1
137 781 1
137 1027 1
137 1028 1
137 1041 1
137 1076 1
137 1093 1
137 1153 1
137 1185 1
137 1223 1
137 1225 1
137 1281 1
137 1283 1
137 1298 1
137 1314 1
137 1347 1
137 1538 1
137 1569 1
137 1573 1
137 1665 1
137 1713 1
137 1730 1
137 1865 1
137 2050 1
137 2051 1
137 2053 1
137 2054 1
137 2065 1
137 2067 1
137 2081 1
137 2085 1
137 2087 1
137 2114 1
137 2123 1
137 2177 1
137 2317 1
137 2337 1
137 2377 1
137 2561 1
137 2629 1
137 2665 1
137 3105 1
137 3127 1
137 3545 1
137 3601 1
137 3971 1
138 1 1
138 5 1
138 18 1
138 21 1
138 38 1
138 129 1
138 133 1
138 201 1
138 257 1
138 418 1
138 458 1
138 514 1
138 538 1
138 781 1
138 1026 1
138 1266 1
138 1283 1
138 1293 1
138 1377 1
138 1617 1
138 2053 1
138 2511 1
138 2561 1
138 2601 1
138 2753 1
138 3149 1
138 3169 1
139 1 1
139 2 1
139 3 1
139 7 1
139 9 1
139 10 1
139 18 1
139 19 1
139 41 1
139 67 1
139 68 1
139 87 1
139 119 1
139 137 1
139 145 1
139 178 1
139 275 1
139 387 1
139 770 1
139 841 1
139 897 1
139 1025 1
139 1029 1
139 1043 1
139 1153 1
139 1157 1
139 1316 1
139 1350 1
139 1537 1
139 1539 1
139 2049 1
139 2056 1
139 2305 1
139 2372 1
139 2567 1
139 2601 1
140 17 1
140 261 1
140 265 1
140 1041 1
140 1409 1
140 2321 1
140 2657 1
140 3203 1
140 3233 1
141 1 1
141 4 1
141 17 1
141 33 1
141 49 1
141 85 1
141 113 1
141 130 1
141 150 1
141 177 1
141 178 1
141 200 1
141 513 1
141 549 1
141 748 1
141 773 1
141 801 1
141 915 1
141 1000 1
141 1059 1
141 1444 1
141 1673 1
141 1810 1
141 2067 1
141 2147 1
141 2149 1
141 2409 1
141 2690 1
142 4 1
142 9 1
142 31 1
142 73 1
142 133 1
142 273 1
142 529 1
142 553 1
142 577 1
142 610 1
142 1284 1
142 1605 1
142 2049 1
143 2 1
143 15 1
143 18 1
143 27 1
143 33 1
143 53 1
143 69 1
143 265 1
143 362 1
143 793 1
143 965 1
143 1025 1
143 1049 1
143 1282 1
143 2227 1
143 2433 1
143 2721 1
143 3866 1
144 241 1
144 257 1
144 1601 1
144 2113 1
144 2722 1
144 2882 1
145 1 1
145 2 1
145 3 1
145 4 1
145 5 1
145 7 1
145 11 1
145 17 1
145 22 1
145 27 1
145 33 1
145 42 1
145 45 1
145 53 1
145 69 1
145 73 1
145 74 1
145 75 1
145 77 1
145 91 1
145 97 1
145 129 1
145 133 1
145 139 1
145 148 1
145 194 1
145 196 1
145 199 1
145 201 1
145 257 1
145 258 1
145 261 1
145 269 1
145 321 1
145 366 1
145 374 1
145 385 1
145 387 1
145 389 1
145 395 1
145 402 1
145 433 1
145 449 1
145 461 1
145 517 1
145 522 1
145 527 1
145 539 1
145 569 1
145 577 1
145 585 1
145 641 1
145 747 1
145 774 1
145 782 1
145 785 1
145 801 1
145 843 1
145 981 1
145 1031 1
145 1033 1
145 1043 1
145 1061 1
145 1077 1
145 1089 1
145 1097 1
145 1105 1
145 1154 1
145 1158 1
145 1293 1
145 1353 1
145 1465 1
145 1541 1
145 1569 1
145 1622 1
145 1634 1
145 1641 1
145 1723 1
145 2049 1
145 2053 1
145 2055 1
145 2057 1
145 2065 1
145 2085 1
145 2113 1
145 2114 1
145 2121 1
145 2305 1
145 2306 1
145 2321 1
145 2345 1
145 2354 1
145 2377 1
145 2385 1
145 2389 1
145 2564 1
145 2567 1
145 2602 1
145 2626 1
145 2657 1
145 2677 1
145 2698 1
145 2817 1
145 2819 1
145 2913 1
145 3073 1
145 3081 1
145 3097 1
145 3105 1
145 3132 1
145 3201 1
145 3339 1
145 3365 1
145 3649 1
145 3651 1
146 3 1
146 33 1
146 35 1
146 36 1
146 71 1
146 97 1
146 98 1
146 161 1
146 193 1
146 263 1
146 285 1
146 301 1
146 363 1
146 386 1
146 390 1
146 513 1
146 529 1
146 548 1
146 625 1
146 1076 1
146 1089 1
146 1169 1
146 1559 1
146 1569 1
146 1605 1
146 2053 1
146 2055 1
146 2076 1
146 2121 1
146 2305 1
146 2313 1
146 2353 1
146 2565 1
146 2583 1
146 2905 1
146 3105 1
146 3627 1
147 1 1
147 2 1
147 5 1
147 6 1
147 9 1
147 17 1
147 37 1
147 38 1
147 129 1
147 161 1
147 202 1
147 257 1
147 265 1
147 429 1
147 453 1
147 517 1
147 529 1
147 577 1
147 641 1
147 642 1
147 833 1
147 1041 1
147 1137 1
147 1153 1
147 1281 1
147 1288 1
147 1573 1
147 2049 1
147 2059 1
147 2077 1
147 2086 1
147 2241 1
147 2273 1
147 2449 1
147 2497 1
147 2565 1
147 2645 1
147 2817 1
147 3081 1
147 3137 1
147 3585 1
147 3586 1
147 3605 1
147 3617 1
147 3842 1
148 33 1
148 145 1
148 275 1
148 513 1
148 562 1
148 778 1
148 915 1
148 1081 1
148 2049 1
149 1 1
149 2 1
149 4 1
149 7 1
149 43 1
149 45 1
149 46 1
149 65 1
149 69 1
149 98 1
149 129 1
149 130 1
149 133 1
149 263 1
149 273 1
149 291 1
149 385 1
149 423 1
149 425 1
149 513 1
149 521 1
149 534 1
149 645 1
149 803 1
149 1025 1
149 1027 1
149 1361 1
149 1577 1
149 2113 1
149 2189 1
149 2309 1
149 2310 1
149 2827 1
149 3073 1
149 3617 1
150 51 1
150 141 1
150 424 1
150 769 1
150 1025 1
150 1041 1
150 1060 1
150 1321 1
150 2049 1
150 2054 1
151 71 1
151 107 1
151 161 1
151 257 1
151 258 1
151 1026 1
151 1041 1
151 1813 1
151 2049 1
151 2113 1
152 1 1
152 162 1
152 2053 1
152 2821 1
153 2 1
153 6 1
153 8 1
153 9 1
153 12 1
153 14 1
153 25 1
153 36 1
153 37 1
153 65 1
153 74 1
153 87 1
153 130 1
153 133 1
153 137 1
153 166 1
153 300 1
153 322 1
153 521 1
153 530 1
153 578 1
153 945 1
153 978 1
153 1027 1
153 1103 1
153 1153 1
153 1157 1
153 1281 1
153 1298 1
153 1329 1
153 1362 1
153 1574 1
153 1586 1
153 1601 1
153 1602 1
153 2113 1
153 2321 1
153 2337 1
153 2437 1
153 2561 1
153 3105 1
153 3592 1
154 53 1
154 129 1
154 297 1
154 593 1
154 1025 1
154 1061 1
154 1609 1
154 2225 1
154 3618 1
155 10 1
155 35 1
155 65 1
155 83 1
155 265 1
155 737 1
155 769 1
155 1067 1
155 1157 1
155 1409 1
155 2053 1
155 2068 1
155 2242 1
155 2565 1
155 3333 1
156 357 1
156 769 1
156 1063 1
156 2209 1
156 2604 1
157 13 1
157 22 1
157 227 1
157 261 1
157 1089 1
157 1164 1
157 1315 1
157 2049 1
157 3585 1
158 257 1
159 66 1
159 513 1
161 1 1
161 2 1
161 3 1
161 4 1
161 5 1
161 9 1
161 12 1
161 13 1
161 17 1
161 18 1
161 29 1
161 33 1
161 34 1
161 39 1
161 40 1
161 45 1
161 54 1
161 65 1
161 67 1
161 68 1
161 69 1
161 70 1
161 71 1
161 73 1
161 81 1
161 93 1
161 97 1
161 105 1
161 129 1
161 133 1
161 146 1
161 147 1
161 151 1
161 197 1
161 257 1
161 265 1
161 266 1
161 273 1
161 297 1
161 312 1
161 321 1
161 333 1
161 354 1
161 374 1
161 436 1
161 513 1
161 521 1
161 529 1
161 533 1
161 548 1
161 549 1
161 577 1
161 612 1
161 649 1
161 650 1
161 673 1
161 674 1
161 1025 1
161 1026 1
161 1028 1
161 1033 1
161 1042 1
161 1049 1
161 1057 1
161 1064 1
161 1069 1
161 1089 1
161 1117 1
161 1129 1
161 1281 1
161 1283 1
161 1313 1
161 1359 1
161 1410 1
161 1539 1
161 1545 1
161 1743 1
161 1851 1
161 2049 1
161 2050 1
161 2061 1
161 2065 1
161 2081 1
161 2113 1
161 2114 1
161 2116 1
161 2257 1
161 2259 1
161 2321 1
161 2433 1
161 2473 1
161 2570 1
161 2629 1
161 2725 1
161 2821 1
161 3081 1
161 3082 1
161 3090 1
161 3113 1
161 3227 1
161 3649 1
162 1 1
162 37 1
162 65 1
162 129 1
162 152 1
162 169 1
162 257 1
162 277 1
162 307 1
162 390 1
162 513 1
162 514 1
162 529 1
162 641 1
162 678 1
162 723 1
162 1027 1
162 1034 1
162 1098 1
162 1155 1
162 1169 1
162 1217 1
162 1241 1
162 1537 1
162 1865 1
162 1929 1
162 2049 1
162 2065 1
162 2087 1
162 2209 1
162 2337 1
162 2658 1
162 2716 1
162 2853 1
162 3073 1
162 3074 1
162 3075 1
162 3715 1
163 1 1
163 6 1
163 7 1
163 9 1
163 10 1
163 65 1
163 66 1
163 69 1
163 73 1
163 89 1
163 130 1
163 189 1
163 257 1
163 267 1
163 274 1
163 289 1
163 321 1
163 322 1
163 353 1
163 420 1
163 521 1
163 522 1
163 530 1
163 545 1
163 549 1
163 641 1
163 645 1
163 801 1
163 865 1
163 897 1
163 1025 1
163 1037 1
163 1538 1
163 2050 1
163 2077 1
163 2082 1
163 2113 1
163 2177 1
163 2343 1
163 2369 1
163 2561 1
163 2563 1
163 2569 1
163 2609 1
163 3111 1
163 3683 1
163 3749 1
164 1 1
164 9 1
164 65 1
164 517 1
164 550 1
164 1363 1
164 2118 1
164 2323 1
165 1 1
165 4 1
165 12 1
165 17 1
165 41 1
165 65 1
165 66 1
165 73 1
165 134 1
165 234 1
165 235 1
165 385 1
165 514 1
165 529 1
165 537 1
165 539 1
165 552 1
165 597 1
165 641 1
165 645 1
165 705 1
165 1050 1
165 1281 1
165 1351 1
165 1538 1
165 1540 1
165 1545 1
165 1569 1
165 2050 1
165 2051 1
165 2053 1
165 2057 1
165 2081 1
165 2085 1
165 2113 1
165 2114 1
165 2305 1
165 2321 1
165 3713 1
166 4 1
166 9 1
166 33 1
166 37 1
166 57 1
166 67 1
166 153 1
166 257 1
166 514 1
166 538 1
166 1025 1
166 2375 1
167 7 1
167 81 1
167 97 1
167 194 1
167 515 1
167 1025 1
167 1051 1
167 1421 1
167 2055 1
167 2690 1
167 2829 1
167 2841 1
168 1 1
168 2 1
168 562 1
168 1281 1
169 1 1
169 4 1
169 7 1
169 19 1
169 26 1
169 65 1
169 66 1
169 73 1
169 89 1
169 98 1
169 129 1
169 133 1
169 162 1
169 257 1
169 258 1
169 259 1
169 273 1
169 305 1
169 519 1
169 547 1
169 617 1
169 802 1
169 926 1
169 1057 1
169 1089 1
169 1287 1
169 1413 1
169 1537 1
169 1569 1
169 2053 1
169 2066 1
169 2305 1
169 2325 1
169 2345 1
169 2631 1
170 1 1
170 3 1
170 7 1
170 11 1
170 19 1
170 71 1
170 261 1
170 513 1
170 585 1
170 795 1
170 1033 1
170 1057 1
170 1072 1
170 1153 1
170 2309 1
170 3010 1
170 3078 1
170 3113 1
171 1 1
171 5 1
171 35 1
171 129 1
171 257 1
171 514 1
171 529 1
171 1554 1
171 2689 1
172 1 1
172 273 1
172 2065 1
173 6 1
173 37 1
173 73 1
173 178 1
173 417 1
173 1027 1
173 1028 1
173 1057 1
173 1314 1
173 1669 1
173 2081 1
173 2085 1
173 2113 1
173 2205 1
173 3332 1
174 1 1
174 546 1
174 645 1
174 1042 1
174 2073 1
175 833 1
175 1195 1
175 2115 1
176 2124 1
177 1 1
177 3 1
177 34 1
177 49 1
177 70 1
177 129 1
177 137 1
177 141 1
177 259 1
177 262 1
177 265 1
177 273 1
177 330 1
177 519 1
177 557 1
177 577 1
177 627 1
177 732 1
177 769 1
177 1025 1
177 1089 1
177 1411 1
177 1678 1
177 2052 1
177 2059 1
177 2090 1
177 2149 1
177 2565 1
177 2663 1
177 2825 1
177 3329 1
177 3613 1
177 3617 1
178 25 1
178 139 1
178 141 1
178 173 1
178 513 1
178 515 1
178 577 1
178 644 1
178 649 1
178 1025 1
178 1027 1
178 1281 1
178 1539 1
178 2079 1
178 2113 1
178 2114 1
179 33 1
179 65 1
179 81 1
179 515 1
179 904 1
179 1090 1
179 2114 1
179 2119 1
179 2181 1
180 25 1
181 3 1
181 10 1
181 65 1
181 68 1
181 69 1
181 258 1
181 259 1
181 580 1
181 645 1
181 1043 1
181 1047 1
181 1282 1
181 2052 1
181 2073 1
181 3729 1
182 33 1
182 35 1
182 41 1
182 657 1
182 3783 1
183 1539 1
183 2051 1
184 1 1
184 1345 1
185 3 1
185 5 1
185 37 1
185 1665 1
185 1734 1
185 2583 1
185 2709 1
186 385 1
186 513 1
186 1037 1
186 1473 1
186 2057 1
186 3203 1
187 5 1
187 129 1
187 769 1
189 163 1
189 533 1
189 2633 1
190 265 1
190 1580 1
191 1 1
193 1 1
193 2 1
193 4 1
193 5 1
193 6 1
193 7 1
193 9 1
193 10 1
193 13 1
193 14 1
193 18 1
193 19 1
193 31 1
193 33 1
193 42 1
193 47 1
193 65 1
193 67 1
193 77 1
193 82 1
193 83 1
193 85 1
193 130 1
193 146 1
193 201 1
193 205 1
193 257 1
193 258 1
193 289 1
193 294 1
193 349 1
193 420 1
193 453 1
193 513 1
193 516 1
193 521 1
193 522 1
193 529 1
193 546 1
193 548 1
193 561 1
193 609 1
193 613 1
193 773 1
193 778 1
193 905 1
193 981 1
193 1025 1
193 1026 1
193 1034 1
193 1077 1
193 1089 1
193 1153 1
193 1282 1
193 1317 1
193 1329 1
193 1402 1
193 1416 1
193 1484 1
193 1537 1
193 1553 1
193 1554 1
193 1665 1
193 1681 1
193 2049 1
193 2051 1
193 2053 1
193 2055 1
193 2059 1
193 2081 1
193 2087 1
193 2089 1
193 2113 1
193 2146 1
193 2257 1
193 2273 1
193 2308 1
193 2338 1
193 2561 1
193 2565 1
193 2577 1
193 2611 1
193 2817 1
193 3018 1
193 3109 1
193 3122 1
193 3201 1
193 3219 1
193 3230 1
193 3253 1
193 3330 1
193 3362 1
193 3459 1
193 3587 1
194 1 1
194 2 1
194 4 1
194 17 1
194 25 1
194 33 1
194 53 1
194 65 1
194 117 1
194 145 1
194 167 1
194 257 1
194 267 1
194 310 1
194 321 1
194 353 1
194 389 1
194 410 1
194 435 1
194 617 1
194 665 1
194 777 1
194 801 1
194 1025 1
194 1031 1
194 1153 1
194 1161 1
194 1201 1
194 1313 1
194 1541 1
194 1633 1
194 1681 1
194 2074 1
194 2149 1
194 2213 1
194 2273 1
194 2561 1
194 2579 1
194 3073 1
194 3137 1
195 3 1
195 65 1
195 66 1
195 73 1
195 129 1
195 273 1
195 277 1
195 457 1
195 513 1
195 515 1
195 547 1
195 577 1
195 641 1
195 801 1
195 1030 1
195 1041 1
195 1042 1
195 1059 1
195 1073 1
195 1153 1
195 1154 1
195 1230 1
195 1297 1
195 1351 1
195 1589 1
195 1606 1
195 2049 1
195 2061 1
195 2188 1
195 2313 1
195 2657 1
195 2665 1
195 2713 1
195 3202 1
196 17 1
196 27 1
196 33 1
196 65 1
196 145 1
196 290 1
196 577 1
196 721 1
196 1041 1
196 2130 1
196 2193 1
196 3145 1
197 1 1
197 3 1
197 17 1
197 33 1
197 44 1
197 132 1
197 137 1
197 161 1
197 273 1
197 275 1
197 513 1
197 562 1
197 578 1
197 769 1
197 961 1
197 1095 1
197 1285 1
197 1317 1
197 1601 1
197 1665 1
197 2581 1
197 3137 1
197 3146 1
197 3249 1
198 1 1
198 5 1
198 65 1
198 77 1
198 130 1
198 259 1
198 265 1
198 321 1
198 387 1
198 653 1
198 1029 1
198 1475 1
198 2063 1
198 3201 1
198 3204 1
199 3 1
199 14 1
199 145 1
199 290 1
199 291 1
199 521 1
199 545 1
199 802 1
199 2049 1
199 2321 1
199 2563 1
199 3841 1
200 33 1
200 141 1
200 283 1
200 433 1
200 2057 1
200 2322 1
200 3075 1
201 1 1
201 3 1
201 14 1
201 41 1
201 129 1
201 138 1
201 145 1
201 193 1
201 289 1
201 513 1
201 516 1
201 517 1
201 657 1
201 786 1
201 1029 1
201 1049 1
201 1089 1
201 1090 1
201 1158 1
201 1185 1
201 1281 1
201 1306 1
201 1385 1
201 1537 1
201 2049 1
201 2309 1
201 2561 1
201 2581 1
201 2626 1
201 2661 1
201 3127 1
201 3153 1
202 1 1
202 58 1
202 65 1
202 147 1
202 257 1
202 261 1
202 673 1
202 1028 1
202 1108 1
202 2269 1
203 257 1
203 513 1
203 1025 1
203 1059 1
203 1349 1
203 2177 1
203 3943 1
204 525 1
205 2 1
205 193 1
205 277 1
205 594 1
205 667 1
205 1029 1
205 1097 1
205 1305 1
205 1545 1
205 1573 1
205 2051 1
205 2881 1
205 3973 1
206 5 1
206 73 1
206 355 1
206 1025 1
206 1057 1
206 1617 1
208 1175 1
209 1 1
209 2 1
209 3 1
209 5 1
209 17 1
209 25 1
209 37 1
209 38 1
209 58 1
209 59 1
209 60 1
209 65 1
209 73 1
209 74 1
209 81 1
209 105 1
209 137 1
209 275 1
209 343 1
209 518 1
209 629 1
209 779 1
209 1033 1
209 1037 1
209 1154 1
209 1169 1
209 1235 1
209 1285 1
209 1473 1
209 1540 1
209 1555 1
209 1573 1
209 1579 1
209 1666 1
209 2051 1
209 2055 1
209 2241 1
209 2273 1
209 2435 1
209 2561 1
209 2625 1
209 2793 1
209 3185 1
209 3587 1
210 13 1
210 33 1
210 53 1
210 82 1
210 99 1
210 257 1
210 259 1
210 307 1
210 390 1
210 1033 1
210 1059 1
210 1065 1
210 1185 1
210 1314 1
210 2049 1
210 2050 1
210 2062 1
210 2065 1
210 2117 1
211 45 1
211 113 1
211 257 1
211 277 1
211 282 1
211 516 1
211 674 1
211 833 1
211 1546 1
211 1569 1
211 2210 1
211 2449 1
212 545 1
212 1537 1
212 2059 1
212 2177 1
213 1 1
213 36 1
213 898 1
213 1026 1
213 2049 1
213 2327 1
213 3081 1
213 3185 1
214 1 1
214 132 1
214 257 1
214 3206 1
215 4 1
215 65 1
215 87 1
215 263 1
215 569 1
215 2049 1
215 2053 1
215 2211 1
215 2305 1
216 273 1
217 769 1
217 771 1
217 1545 1
217 1673 1
217 2100 1
217 3237 1
217 3330 1
218 1028 1
219 259 1
219 513 1
219 1281 1
219 1537 1
219 1538 1
219 2051 1
221 1037 1
221 1297 1
221 1681 1
221 3409 1
223 1027 1
225 1 1
225 11 1
225 13 1
225 33 1
225 39 1
225 65 1
225 131 1
225 133 1
225 257 1
225 265 1
225 268 1
225 273 1
225 298 1
225 513 1
225 514 1
225 519 1
225 530 1
225 579 1
225 769 1
225 1029 1
225 1033 1
225 1050 1
225 1109 1
225 1163 1
225 1449 1
225 1540 1
225 1546 1
225 1551 1
225 2049 1
225 2051 1
225 2067 1
225 2081 1
225 2213 1
225 2305 1
225 2386 1
225 2561 1
225 2763 1
226 1 1
226 3 1
226 65 1
226 271 1
226 289 1
226 386 1
226 541 1
226 1049 1
226 1105 1
226 2325 1
226 2597 1
226 2641 1
227 2 1
227 9 1
227 66 1
227 157 1
227 591 1
227 1041 1
227 2608 1
228 5 1
228 7 1
228 25 1
228 325 1
228 2054 1
228 2573 1
229 3 1
229 33 1
229 257 1
229 302 1
229 513 1
229 787 1
229 1110 1
229 2101 1
229 2130 1
229 2179 1
229 2561 1
229 2579 1
229 2639 1
229 3073 1
230 9 1
230 515 1
230 659 1
231 278 1
231 1189 1
232 11 1
233 3 1
233 5 1
233 19 1
233 129 1
233 521 1
233 797 1
233 2307 1
234 131 1
234 165 1
234 2097 1
234 3073 1
235 165 1
235 1315 1
235 1362 1
235 3107 1
236 1169 1
237 3 1
237 538 1
237 674 1
238 321 1
238 337 1
239 1033 1
239 1285 1
241 5 1
241 9 1
241 10 1
241 65 1
241 129 1
241 144 1
241 261 1
241 525 1
241 548 1
241 769 1
241 865 1
241 1139 1
241 2065 1
241 2377 1
241 2693 1
241 3465 1
242 9 1
242 17 1
242 81 1
242 2145 1
243 371 1
243 1026 1
243 1282 1
245 11 1
245 35 1
245 314 1
246 513 1
247 2 1
247 1157 1
248 273 1
248 801 1
248 2113 1
249 38 1
249 2307 1
249 3073 1
250 257 1
251 17 1
252 1033 1
255 933 1
257 1 1
257 2 1
257 3 1
257 4 1
257 5 1
257 9 1
257 10 1
257 11 1
257 17 1
257 18 1
257 19 1
257 21 1
257 23 1
257 25 1
257 26 1
257 29 1
257 31 1
257 33 1
257 34 1
257 35 1
257 36 1
257 37 1
257 38 1
257 39 1
257 41 1
257 42 1
257 43 1
257 48 1
257 52 1
257 58 1
257 59 1
257 65 1
257 66 1
257 67 1
257 68 1
257 69 1
257 71 1
257 72 1
257 73 1
257 74 1
257 81 1
257 82 1
257 83 1
257 86 1
257 89 1
257 97 1
257 101 1
257 105 1
257 113 1
257 114 1
257 116 1
257 129 1
257 131 1
257 133 1
257 137 1
257 138 1
257 144 1
257 145 1
257 147 1
257 151 1
257 158 1
257 161 1
257 162 1
257 163 1
257 166 1
257 169 1
257 171 1
257 193 1
257 194 1
257 202 1
257 203 1
257 210 1
257 211 1
257 214 1
257 225 1
257 229 1
257 250 1
257 258 1
257 259 1
257 261 1
257 264 1
257 265 1
257 267 1
257 276 1
257 277 1
257 281 1
257 283 1
257 289 1
257 297 1
257 298 1
257 299 1
257 301 1
257 323 1
257 324 1
257 361 1
257 385 1
257 389 1
257 393 1
257 397 1
257 405 1
257 406 1
257 417 1
257 425 1
257 458 1
257 497 1
257 513 1
257 514 1
257 517 1
257 521 1
257 522 1
257 523 1
257 526 1
257 529 1
257 530 1
257 531 1
257 533 1
257 536 1
257 538 1
257 546 1
257 549 1
257 552 1
257 553 1
257 567 1
257 577 1
257 578 1
257 581 1
257 585 1
257 601 1
257 612 1
257 613 1
257 625 1
257 645 1
257 655 1
257 657 1
257 659 1
257 674 1
257 705 1
257 725 1
257 753 1
257 757 1
257 769 1
257 771 1
257 780 1
257 781 1
257 834 1
257 839 1
257 978 1
257 1025 1
257 1026 1
257 1027 1
257 1028 1
257 1029 1
257 1030 1
257 1037 1
257 1038 1
257 1041 1
257 1043 1
257 1047 1
257 1053 1
257 1061 1
257 1073 1
257 1079 1
257 1089 1
257 1090 1
257 1092 1
257 1097 1
257 1105 1
257 1115 1
257 1135 1
257 1145 1
257 1155 1
257 1160 1
257 1161 1
257 1166 1
257 1169 1
257 1175 1
257 1177 1
257 1187 1
257 1191 1
257 1217 1
257 1223 1
257 1225 1
257 1226 1
257 1233 1
257 1243 1
257 1277 1
257 1293 1
257 1297 1
257 1317 1
257 1325 1
257 1329 1
257 1377 1
257 1409 1
257 1416 1
257 1426 1
257 1441 1
257 1449 1
257 1481 1
257 1529 1
257 1537 1
257 1541 1
257 1558 1
257 1559 1
257 1569 1
257 1602 1
257 1641 1
257 1671 1
257 1673 1
257 1747 1
257 1805 1
257 1873 1
257 1953 1
257 1957 1
257 2049 1
257 2050 1
257 2051 1
257 2052 1
257 2053 1
257 2056 1
257 2057 1
257 2061 1
257 2073 1
257 2075 1
257 2083 1
257 2085 1
257 2088 1
257 2089 1
257 2092 1
257 2098 1
257 2101 1
257 2113 1
257 2129 1
257 2145 1
257 2177 1
257 2187 1
257 2201 1
257 2209 1
257 2213 1
257 2226 1
257 2241 1
257 2243 1
257 2250 1
257 2256 1
257 2305 1
257 2307 1
257 2313 1
257 2321 1
257 2325 1
257 2338 1
257 2339 1
257 2345 1
257 2373 1
257 2374 1
257 2379 1
257 2437 1
257 2501 1
257 2561 1
257 2569 1
257 2573 1
257 2577 1
257 2593 1
257 2625 1
257 2629 1
257 2667 1
257 2705 1
257 2713 1
257 2721 1
257 2737 1
257 2753 1
257 2884 1
257 2947 1
257 2949 1
257 3073 1
257 3079 1
257 3081 1
257 3089 1
257 3091 1
257 3105 1
257 3125 1
257 3138 1
257 3139 1
257 3201 1
257 3249 1
257 3265 1
257 3273 1
257 3330 1
257 3347 1
257 3357 1
257 3617 1
257 3633 1
257 3853 1
258 1 1
258 3 1
258 5 1
258 11 1
258 17 1
258 23 1
258 25 1
258 35 1
258 45 1
258 65 1
258 66 1
258 67 1
258 69 1
258 73 1
258 74 1
258 81 1
258 83 1
258 85 1
258 98 1
258 99 1
258 129 1
258 130 1
258 145 1
258 151 1
258 169 1
258 181 1
258 193 1
258 257 1
258 281 1
258 329 1
258 390 1
258 397 1
258 513 1
258 516 1
258 517 1
258 533 1
258 539 1
258 545 1
258 593 1
258 621 1
258 642 1
258 651 1
258 677 1
258 773 1
258 836 1
258 949 1
258 1025 1
258 1027 1
258 1029 1
258 1041 1
258 1113 1
258 1161 1
258 1169 1
258 1176 1
258 1193 1
258 1249 1
258 1287 1
258 1345 1
258 1377 1
258 1493 1
258 1537 1
258 1541 1
258 1697 1
258 1845 1
258 1931 1
258 2051 1
258 2053 1
258 2055 1
258 2056 1
258 2058 1
258 2063 1
258 2066 1
258 2067 1
258 2073 1
258 2075 1
258 2081 1
258 2113 1
258 2115 1
258 2177 1
258 2225 1
258 2306 1
258 2329 1
258 2433 1
258 2441 1
258 2545 1
258 2553 1
258 2690 1
258 2842 1
258 2849 1
258 3073 1
258 3079 1
258 3098 1
258 3170 1
258 3228 1
258 3877 1
259 1 1
259 4 1
259 5 1
259 6 1
259 9 1
259 13 1
259 17 1
259 34 1
259 35 1
259 65 1
259 66 1
259 75 1
259 81 1
259 113 1
259 129 1
259 130 1
259 133 1
259 169 1
259 177 1
259 181 1
259 198 1
259 210 1
259 219 1
259 257 1
259 262 1
259 265 1
259 267 1
259 273 1
259 277 1
259 280 1
259 293 1
259 301 1
259 302 1
259 305 1
259 321 1
259 385 1
259 409 1
259 410 1
259 425 1
259 515 1
259 517 1
259 521 1
259 546 1
259 555 1
259 577 1
259 646 1
259 648 1
259 769 1
259 793 1
259 818 1
259 851 1
259 1028 1
259 1029 1
259 1033 1
259 1037 1
259 1061 1
259 1090 1
259 1123 1
259 1153 1
259 1162 1
259 1201 1
259 1220 1
259 1271 1
259 1283 1
259 1293 1
259 1410 1
259 1474 1
259 1481 1
259 1670 1
259 1713 1
259 2049 1
259 2050 1
259 2052 1
259 2053 1
259 2054 1
259 2055 1
259 2057 1
259 2087 1
259 2089 1
259 2121 1
259 2138 1
259 2145 1
259 2153 1
259 2178 1
259 2217 1
259 2305 1
259 2306 1
259 2311 1
259 2313 1
259 2562 1
259 2569 1
259 2593 1
259 2610 1
259 2689 1
259 2841 1
259 2913 1
259 3020 1
259 3109 1
259 3142 1
259 3154 1
259 3157 1
259 3364 1
260 1 1
260 18 1
260 45 1
260 67 1
260 77 1
260 81 1
260 321 1
260 425 1
260 453 1
260 520 1
260 529 1
260 550 1
260 769 1
260 771 1
260 1025 1
260 1289 1
260 1313 1
260 1665 1
260 1681 1
260 2058 1
260 2065 1
260 2097 1
260 2113 1
260 2273 1
260 2638 1
260 2705 1
260 3075 1
260 3202 1
260 3585 1
260 3597 1
261 1 1
261 2 1
261 3 1
261 9 1
261 10 1
261 11 1
261 12 1
261 13 1
261 17 1
261 26 1
261 33 1
261 35 1
261 41 1
261 42 1
261 44 1
261 65 1
261 66 1
261 68 1
261 74 1
261 97 1
261 113 1
261 129 1
261 131 1
261 133 1
261 137 1
261 140 1
261 145 1
261 157 1
261 170 1
261 202 1
261 241 1
261 257 1
261 286 1
261 297 1
261 321 1
261 324 1
261 353 1
261 361 1
261 426 1
261 513 1
261 517 1
261 545 1
261 577 1
261 578 1
261 579 1
261 585 1
261 618 1
261 627 1
261 649 1
261 673 1
261 775 1
261 803 1
261 826 1
261 897 1
261 929 1
261 1025 1
261 1026 1
261 1027 1
261 1029 1
261 1034 1
261 1037 1
261 1061 1
261 1062 1
261 1155 1
261 1157 1
261 1165 1
261 1281 1
261 1314 1
261 1345 1
261 1412 1
261 1539 1
261 1549 1
261 1561 1
261 1593 1
261 1762 1
261 1801 1
261 2049 1
261 2050 1
261 2058 1
261 2059 1
261 2065 1
261 2069 1
261 2077 1
261 2081 1
261 2097 1
261 2113 1
261 2114 1
261 2178 1
261 2180 1
261 2305 1
261 2321 1
261 2561 1
261 2723 1
261 2827 1
261 3075 1
261 3078 1
261 3098 1
261 3118 1
261 3141 1
261 3215 1
261 3297 1
261 3705 1
262 1 1
262 3 1
262 33 1
262 34 1
262 35 1
262 52 1
262 67 1
262 129 1
262 177 1
262 259 1
262 265 1
262 267 1
262 418 1
262 449 1
262 521 1
262 545 1
262 610 1
262 650 1
262 658 1
262 1035 1
262 1057 1
262 1073 1
262 1169 1
262 1171 1
262 1282 1
262 1412 1
262 1611 1
262 1697 1
262 2049 1
262 2051 1
262 2306 1
262 2349 1
262 2833 1
262 2857 1
262 3073 1
262 3473 1
263 2 1
263 5 1
263 6 1
263 41 1
263 81 1
263 121 1
263 146 1
263 149 1
263 215 1
263 342 1
263 385 1
263 403 1
263 411 1
263 441 1
263 449 1
263 529 1
263 578 1
263 642 1
263 653 1
263 1025 1
263 1030 1
263 1057 1
263 1679 1
263 1799 1
263 2194 1
263 2209 1
263 2353 1
263 2562 1
263 2594 1
263 2641 1
263 2689 1
263 3073 1
263 3177 1
263 3841 1
264 1 1
264 17 1
264 49 1
264 73 1
264 129 1
264 130 1
264 257 1
264 441 1
264 936 1
264 1025 1
264 1189 1
264 2053 1
264 2421 1
264 2653 1
265 1 1
265 2 1
265 3 1
265 4 1
265 5 1
265 7 1
265 9 1
265 10 1
265 11 1
265 17 1
265 18 1
265 20 1
265 21 1
265 33 1
265 34 1
265 36 1
265 43 1
265 49 1
265 50 1
265 65 1
265 66 1
265 68 1
265 70 1
265 73 1
265 98 1
265 129 1
265 133 1
265 140 1
265 143 1
265 147 1
265 155 1
265 161 1
265 177 1
265 190 1
265 198 1
265 225 1
265 257 1
265 259 1
265 262 1
265 279 1
265 289 1
265 308 1
265 329 1
265 331 1
265 337 1
265 353 1
265 513 1
265 514 1
265 521 1
265 529 1
265 537 1
265 561 1
265 677 1
265 709 1
265 769 1
265 855 1
265 897 1
265 1025 1
265 1027 1
265 1031 1
265 1041 1
265 1057 1
265 1075 1
265 1089 1
265 1098 1
265 1125 1
265 1153 1
265 1157 1
265 1169 1
265 1202 1
265 1221 1
265 1226 1
265 1239 1
265 1299 1
265 1417 1
265 1539 1
265 1540 1
265 1553 1
265 1577 1
265 1633 1
265 1665 1
265 1715 1
265 1825 1
265 2049 1
265 2050 1
265 2051 1
265 2052 1
265 2053 1
265 2055 1
265 2057 1
265 2103 1
265 2145 1
265 2149 1
265 2177 1
265 2209 1
265 2211 1
265 2323 1
265 2359 1
265 2361 1
265 2563 1
265 2574 1
265 2581 1
265 2594 1
265 2817 1
265 2833 1
265 2917 1
265 3075 1
265 3107 1
265 3169 1
265 3186 1
265 3233 1
265 3331 1
265 3715 1
266 1 1
266 3 1
266 13 1
266 36 1
266 49 1
266 67 1
266 81 1
266 161 1
266 321 1
266 341 1
266 393 1
266 514 1
266 641 1
266 845 1
266 1075 1
266 1170 1
266 1181 1
266 1348 1
266 1576 1
266 2053 1
266 2057 1
266 2065 1
266 2122 1
266 2187 1
266 2209 1
266 2338 1
266 2378 1
266 2446 1
266 3073 1
266 3081 1
266 3105 1
266 3207 1
267 1 1
267 4 1
267 5 1
267 6 1
267 33 1
267 36 1
267 66 1
267 67 1
267 103 1
267 131 1
267 163 1
267 194 1
267 257 1
267 259 1
267 262 1
267 290 1
267 327 1
267 437 1
267 525 1
267 900 1
267 1025 1
267 1041 1
267 1073 1
267 1425 1
267 1540 1
267 2070 1
267 2181 1
267 2196 1
267 2245 1
267 2339 1
267 2433 1
267 2562 1
267 2597 1
268 1 1
268 10 1
268 100 1
268 120 1
268 225 1
268 273 1
268 377 1
268 589 1
268 658 1
268 1025 1
268 2129 1
268 2209 1
268 2401 1
268 3091 1
268 3141 1
269 1 1
269 9 1
269 14 1
269 17 1
269 18 1
269 21 1
269 27 1
269 33 1
269 37 1
269 42 1
269 49 1
269 65 1
269 66 1
269 69 1
269 94 1
269 97 1
269 145 1
269 397 1
269 521 1
269 525 1
269 597 1
269 1025 1
269 1097 1
269 1105 1
269 1346 1
269 1617 1
269 1966 1
269 2049 1
269 2050 1
269 2058 1
269 2121 1
269 2177 1
269 3105 1
270 20 1
270 129 1
270 307 1
270 385 1
270 1025 1
270 1026 1
270 1541 1
270 3169 1
270 3659 1
271 1 1
271 18 1
271 50 1
271 67 1
271 71 1
271 130 1
271 226 1
271 545 1
271 577 1
271 801 1
271 1043 1
271 1126 1
271 1169 1
271 1667 1
271 2103 1
271 2241 1
271 3362 1
272 2 1
272 65 1
272 424 1
272 1043 1
272 1297 1
272 2061 1
272 2321 1
273 1 1
273 2 1
273 3 1
273 5 1
273 9 1
273 10 1
273 11 1
273 17 1
273 24 1
273 33 1
273 34 1
273 41 1
273 47 1
273 54 1
273 65 1
273 66 1
273 77 1
273 82 1
273 97 1
273 105 1
273 129 1
273 131 1
273 133 1
273 137 1
273 142 1
273 149 1
273 161 1
273 169 1
273 172 1
273 177 1
273 195 1
273 197 1
273 216 1
273 225 1
273 248 1
273 259 1
273 268 1
273 289 1
273 313 1
273 321 1
273 322 1
273 325 1
273 469 1
273 513 1
273 515 1
273 516 1
273 521 1
273 525 1
273 535 1
273 537 1
273 545 1
273 578 1
273 579 1
273 605 1
273 641 1
273 645 1
273 769 1
273 778 1
273 1025 1
273 1027 1
273 1029 1
273 1045 1
273 1057 1
273 1062 1
273 1065 1
273 1073 1
273 1089 1
273 1117 1
273 1129 1
273 1153 1
273 1154 1
273 1155 1
273 1158 1
273 1177 1
273 1250 1
273 1289 1
273 1340 1
273 1373 1
273 1486 1
273 1537 1
273 1553 1
273 1593 1
273 1715 1
273 2049 1
273 2053 1
273 2058 1
273 2061 1
273 2063 1
273 2065 1
273 2068 1
273 2079 1
273 2081 1
273 2085 1
273 2113 1
273 2129 1
273 2179 1
273 2200 1
273 2217 1
273 2249 1
273 2261 1
273 2337 1
273 2566 1
273 2577 1
273 2594 1
273 2821 1
273 3073 1
273 3076 1
273 3089 1
273 3107 1
273 3137 1
273 3169 1
273 3561 1
273 3586 1
273 3784 1
274 3 1
274 5 1
274 11 1
274 57 1
274 65 1
274 67 1
274 85 1
274 121 1
274 163 1
274 290 1
274 329 1
274 513 1
274 550 1
274 619 1
274 643 1
274 673 1
274 773 1
274 1025 1
274 1043 1
274 1057 1
274 1062 1
274 1155 1
274 1207 1
274 1539 1
274 1681 1
274 1795 1
274 2049 1
274 2193 1
274 2305 1
274 2453 1
274 3591 1
275 1 1
275 2 1
275 5 1
275 20 1
275 33 1
275 67 1
275 81 1
275 139 1
275 148 1
275 197 1
275 209 1
275 513 1
275 519 1
275 538 1
275 1025 1
275 1090 1
275 1169 1
275 1217 1
275 1554 1
275 1681 1
275 1858 1
275 2053 1
275 2177 1
275 2217 1
275 2306 1
275 2567 1
275 2629 1
275 2705 1
275 2846 1
275 3090 1
275 3139 1
276 257 1
276 518 1
276 594 1
276 1762 1
276 2197 1
277 1 1
277 7 1
277 11 1
277 162 1
277 195 1
277 205 1
277 211 1
277 257 1
277 259 1
277 281 1
277 548 1
277 644 1
277 657 1
277 681 1
277 891 1
277 1107 1
277 1154 1
277 1345 1
277 1669 1
277 2114 1
277 2177 1
277 2307 1
277 2561 1
277 3490 1
278 1 1
278 231 1
278 679 1
278 1617 1
278 1825 1
278 2585 1
278 3041 1
278 3212 1
279 33 1
279 35 1
279 265 1
279 534 1
279 1305 1
279 1545 1
279 2115 1
279 2305 1
279 3665 1
279 3929 1
280 259 1
280 781 1
280 2561 1
281 1 1
281 3 1
281 4 1
281 9 1
281 18 1
281 58 1
281 97 1
281 129 1
281 134 1
281 137 1
281 257 1
281 258 1
281 277 1
281 386 1
281 387 1
281 517 1
281 551 1
281 577 1
281 611 1
281 898 1
281 901 1
281 1077 1
281 1409 1
281 1545 1
281 1585 1
281 2117 1
281 2177 1
281 2313 1
281 2337 1
281 2437 1
281 2565 1
281 2579 1
281 2625 1
281 2697 1
281 2831 1
281 3109 1
281 3331 1
282 5 1
282 211 1
282 305 1
282 521 1
282 1025 1
282 1190 1
282 1545 1
282 2083 1
282 2177 1
282 2245 1
282 2563 1
283 9 1
283 49 1
283 97 1
283 200 1
283 257 1
283 545 1
283 769 1
283 898 1
283 1026 1
283 1281 1
283 1549 1
283 2050 1
283 2245 1
283 3361 1
284 65 1
284 1089 1
285 3 1
285 66 1
285 82 1
285 146 1
285 513 1
285 609 1
285 818 1
285 1026 1
285 1126 1
285 1415 1
285 2823 1
285 3229 1
286 7 1
286 66 1
286 261 1
286 295 1
286 2083 1
286 2753 1
287 133 1
287 519 1
287 1153 1
288 1554 1
288 2267 1
289 1 1
289 2 1
289 3 1
289 5 1
289 9 1
289 10 1
289 17 1
289 18 1
289 21 1
289 33 1
289 35 1
289 52 1
289 57 1
289 65 1
289 67 1
289 73 1
289 97 1
289 115 1
289 121 1
289 129 1
289 131 1
289 163 1
289 193 1
289 201 1
289 226 1
289 257 1
289 265 1
289 273 1
289 291 1
289 293 1
289 297 1
289 321 1
289 402 1
289 411 1
289 449 1
289 452 1
289 513 1
289 515 1
289 516 1
289 540 1
289 545 1
289 553 1
289 556 1
289 577 1
289 598 1
289 613 1
289 617 1
289 642 1
289 655 1
289 665 1
289 673 1
289 775 1
289 777 1
289 785 1
289 801 1
289 833 1
289 865 1
289 1029 1
289 1058 1
289 1077 1
289 1089 1
289 1090 1
289 1092 1
289 1093 1
289 1102 1
289 1281 1
289 1313 1
289 1409 1
289 1537 1
289 1572 1
289 1633 1
289 1665 1
289 1692 1
289 2049 1
289 2057 1
289 2059 1
289 2071 1
289 2145 1
289 2161 1
289 2187 1
289 2257 1
289 2307 1
289 2418 1
289 2451 1
289 2453 1
289 2477 1
289 2753 1
289 3099 1
289 3113 1
289 3334 1
289 3586 1
289 3587 1
289 3786 1
290 1 1
290 5 1
290 9 1
290 17 1
290 21 1
290 33 1
290 65 1
290 77 1
290 97 1
290 129 1
290 135 1
290 196 1
290 199 1
290 267 1
290 274 1
290 291 1
290 385 1
290 449 1
290 517 1
290 531 1
290 535 1
290 1025 1
290 1122 1
290 1158 1
290 1281 1
290 1287 1
290 1430 1
290 1625 1
290 1713 1
290 2053 1
290 2054 1
290 2055 1
290 2073 1
290 2115 1
290 2305 1
290 2572 1
290 2689 1
290 3073 1
290 3085 1
290 3089 1
291 1 1
291 3 1
291 5 1
291 6 1
291 33 1
291 58 1
291 65 1
291 69 1
291 81 1
291 133 1
291 149 1
291 199 1
291 289 1
291 290 1
291 515 1
291 523 1
291 524 1
291 525 1
291 529 1
291 545 1
291 577 1
291 641 1
291 658 1
291 681 1
291 1064 1
291 1090 1
291 1297 1
291 1574 1
291 1665 1
291 1745 1
291 2049 1
291 2057 1
291 2114 1
291 2115 1
291 2213 1
291 2306 1
291 2317 1
291 2377 1
291 3073 1
291 3233 1
291 3651 1
292 1 1
292 17 1
292 66 1
292 81 1
292 322 1
292 385 1
292 645 1
292 1025 1
292 1105 1
292 1666 1
292 3121 1
293 1 1
293 5 1
293 9 1
293 17 1
293 18 1
293 19 1
293 21 1
293 65 1
293 69 1
293 71 1
293 81 1
293 259 1
293 289 1
293 322 1
293 513 1
293 578 1
293 916 1
293 1025 1
293 1033 1
293 1041 1
293 1602 1
293 1633 1
293 2050 1
293 2054 1
293 2243 1
293 2563 1
293 3097 1
293 3105 1
293 3248 1
293 3585 1
294 3 1
294 7 1
294 21 1
294 35 1
294 66 1
294 76 1
294 137 1
294 193 1
294 449 1
294 1153 1
294 1281 1
294 1540 1
294 2051 1
294 2084 1
294 2377 1
294 2838 1
295 129 1
295 286 1
295 2054 1
295 2337 1
295 3075 1
295 3205 1
297 1 1
297 17 1
297 23 1
297 33 1
297 34 1
297 43 1
297 67 1
297 73 1
297 154 1
297 161 1
297 257 1
297 261 1
297 289 1
297 337 1
297 513 1
297 577 1
297 710 1
297 773 1
297 899 1
297 1025 1
297 1041 1
297 1045 1
297 1089 1
297 1537 1
297 1793 1
297 2051 1
297 2065 1
297 2081 1
297 2089 1
297 2099 1
297 2193 1
297 2227 1
297 2565 1
297 2594 1
297 2690 1
297 2725 1
297 3156 1
297 3585 1
297 3973 1
298 1 1
298 65 1
298 225 1
298 257 1
298 1049 1
298 1283 1
298 1361 1
298 1539 1
298 1667 1
298 2051 1
298 2113 1
298 2562 1
298 2567 1
298 2609 1
298 3201 1
299 65 1
299 68 1
299 257 1
299 449 1
299 545 1
299 577 1
299 649 1
299 772 1
299 2065 1
299 2245 1
299 2258 1
299 2305 1
299 2309 1
300 153 1
300 631 1
300 1027 1
300 2177 1
300 2309 1
300 2370 1
301 19 1
301 50 1
301 129 1
301 146 1
301 257 1
301 259 1
301 1041 1
301 1073 1
301 1105 1
301 1469 1
301 1569 1
301 2180 1
301 3137 1
301 3214 1
302 101 1
302 229 1
302 259 1
302 529 1
302 1230 1
302 2625 1
303 69 1
303 113 1
303 546 1
303 642 1
303 1156 1
303 1185 1
304 1 1
305 1 1
305 4 1
305 9 1
305 37 1
305 137 1
305 169 1
305 259 1
305 282 1
305 325 1
305 513 1
305 515 1
305 531 1
305 557 1
305 564 1
305 644 1
305 1033 1
305 1155 1
305 1559 1
305 2051 1
305 2057 1
305 2058 1
305 2090 1
305 2117 1
305 2121 1
305 2131 1
305 2242 1
305 2307 1
305 2369 1
305 2438 1
305 2666 1
305 2953 1
305 3113 1
305 3365 1
306 12 1
306 17 1
306 515 1
306 675 1
306 1125 1
306 1697 1
306 2091 1
306 3073 1
306 3633 1
307 9 1
307 41 1
307 81 1
307 162 1
307 210 1
307 270 1
307 397 1
307 625 1
307 642 1
307 1029 1
307 1095 1
307 1099 1
307 2049 1
307 2073 1
307 2273 1
307 2697 1
307 3092 1
308 33 1
308 265 1
308 737 1
308 2307 1
308 2391 1
309 9 1
309 483 1
309 517 1
309 573 1
309 1049 1
309 1093 1
309 3273 1
309 3617 1
309 3844 1
310 17 1
310 194 1
310 451 1
310 1041 1
310 1053 1
310 1089 1
310 2147 1
310 3457 1
311 33 1
311 1030 1
311 1121 1
311 2243 1
312 3 1
312 129 1
312 161 1
313 2 1
313 75 1
313 129 1
313 273 1
313 461 1
313 578 1
313 705 1
313 790 1
313 1025 1
313 2177 1
313 2209 1
313 2244 1
313 2497 1
314 245 1
315 131 1
315 2956 1
317 1 1
317 585 1
317 1282 1
318 1 1
319 65 1
319 1057 1
321 1 1
321 2 1
321 4 1
321 5 1
321 10 1
321 15 1
321 17 1
321 19 1
321 21 1
321 27 1
321 29 1
321 33 1
321 37 1
321 82 1
321 85 1
321 129 1
321 131 1
321 132 1
321 134 1
321 137 1
321 145 1
321 161 1
321 163 1
321 194 1
321 198 1
321 238 1
321 259 1
321 260 1
321 261 1
321 266 1
321 273 1
321 289 1
321 325 1
321 393 1
321 449 1
321 513 1
321 514 1
321 515 1
321 525 1
321 560 1
321 563 1
321 582 1
321 643 1
321 649 1
321 653 1
321 1025 1
321 1033 1
321 1037 1
321 1067 1
321 1093 1
321 1225 1
321 1281 1
321 1287 1
321 1538 1
321 1539 1
321 1569 1
321 1578 1
321 1645 1
321 1812 1
321 1827 1
321 2049 1
321 2051 1
321 2062 1
321 2097 1
321 2113 1
321 2115 1
321 2122 1
321 2125 1
321 2185 1
321 2306 1
321 2307 1
321 2377 1
321 2562 1
321 2569 1
321 2581 1
321 2641 1
321 2721 1
321 2794 1
321 2825 1
321 2887 1
321 3073 1
321 3081 1
321 3113 1
321 3217 1
321 3357 1
321 3469 1
321 3602 1
321 3857 1
322 1 1
322 5 1
322 33 1
322 42 1
322 67 1
322 97 1
322 110 1
322 129 1
322 131 1
322 133 1
322 153 1
322 163 1
322 273 1
322 292 1
322 293 1
322 337 1
322 354 1
322 513 1
322 545 1
322 554 1
322 569 1
322 785 1
322 787 1
322 845 1
322 1025 1
322 1033 1
322 1035 1
322 1041 1
322 1073 1
322 1161 1
322 2051 1
322 2145 1
322 2219 1
322 2337 1
322 2568 1
322 2574 1
322 3201 1
322 3637 1
323 1 1
323 2 1
323 9 1
323 34 1
323 99 1
323 125 1
323 133 1
323 257 1
323 513 1
323 521 1
323 531 1
323 545 1
323 555 1
323 557 1
323 588 1
323 650 1
323 833 1
323 1025 1
323 1063 1
323 1092 1
323 1105 1
323 1297 1
323 1537 1
323 1679 1
323 2085 1
323 2098 1
323 2114 1
323 2122 1
323 3147 1
323 3585 1
324 1 1
324 33 1
324 41 1
324 129 1
324 257 1
324 261 1
324 529 1
324 769 1
324 1057 1
324 1185 1
324 2065 1
324 2305 1
325 1 1
325 3 1
325 5 1
325 6 1
325 9 1
325 29 1
325 33 1
325 37 1
325 65 1
325 71 1
325 100 1
325 228 1
325 273 1
325 305 1
325 321 1
325 388 1
325 514 1
325 515 1
325 525 1
325 530 1
325 537 1
325 539 1
325 545 1
325 547 1
325 553 1
325 577 1
325 585 1
325 617 1
325 1025 1
325 1026 1
325 1046 1
325 1059 1
325 1089 1
325 1169 1
325 1473 1
325 1545 1
325 1561 1
325 2049 1
325 2050 1
325 2061 1
325 2065 1
325 2073 1
325 2091 1
325 2105 1
325 2178 1
325 2193 1
325 2275 1
325 2705 1
325 3206 1
325 3353 1
325 3393 1
326 1 1
326 65 1
326 113 1
326 522 1
326 1121 1
326 1154 1
326 1538 1
326 1665 1
326 2065 1
326 2067 1
326 2106 1
326 2114 1
326 2211 1
327 1 1
327 2 1
327 18 1
327 65 1
327 130 1
327 267 1
327 721 1
327 771 1
327 1075 1
327 1153 1
327 2305 1
327 2761 1
327 3633 1
328 1 1
328 10 1
328 547 1
329 1 1
329 3 1
329 5 1
329 35 1
329 38 1
329 53 1
329 69 1
329 131 1
329 258 1
329 265 1
329 274 1
329 377 1
329 417 1
329 425 1
329 513 1
329 691 1
329 770 1
329 785 1
329 1025 1
329 1057 1
329 1089 1
329 1153 1
329 1206 1
329 1254 1
329 1537 1
329 1547 1
329 1553 1
329 1603 1
329 1610 1
329 1682 1
329 2197 1
329 2265 1
329 2313 1
329 2851 1
329 3462 1
330 33 1
330 34 1
330 129 1
330 177 1
330 513 1
330 787 1
330 2065 1
330 2081 1
330 2113 1
330 2123 1
330 2562 1
330 2721 1
330 2865 1
331 9 1
331 11 1
331 17 1
331 265 1
331 513 1
331 641 1
331 1561 1
331 2338 1
331 2434 1
331 3138 1
332 35 1
332 521 1
332 626 1
332 1586 1
333 29 1
333 161 1
333 418 1
333 787 1
333 1025 1
333 1030 1
333 1604 1
333 2082 1
333 2209 1
334 1 1
334 131 1
334 391 1
334 686 1
334 3217 1
335 2819 1
335 3457 1
336 521 1
337 3 1
337 6 1
337 33 1
337 41 1
337 97 1
337 238 1
337 265 1
337 297 1
337 322 1
337 397 1
337 513 1
337 519 1
337 769 1
337 795 1
337 805 1
337 1025 1
337 1030 1
337 1282 1
337 1537 1
337 1683 1
337 1795 1
337 1921 1
337 2088 1
337 2317 1
337 2529 1
337 2625 1
337 3229 1
338 53 1
338 65 1
338 402 1
338 1282 1
338 1793 1
338 2115 1
338 2563 1
339 1 1
339 2 1
339 73 1
339 134 1
339 1233 1
339 1541 1
339 2225 1
340 65 1
340 529 1
340 1025 1
340 2355 1
340 2509 1
341 6 1
341 9 1
341 17 1
341 29 1
341 34 1
341 37 1
341 49 1
341 266 1
341 393 1
341 547 1
341 1025 1
341 1097 1
341 1928 1
341 2051 1
341 2113 1
341 2562 1
342 263 1
342 481 1
342 2565 1
343 209 1
343 1027 1
343 1089 1
343 2113 1
343 2370 1
344 3079 1
345 1 1
345 6 1
345 9 1
345 17 1
345 57 1
345 97 1
345 129 1
345 131 1
345 369 1
345 1156 1
345 1582 1
345 2054 1
345 2065 1
345 2077 1
345 2093 1
345 2563 1
345 2569 1
345 3169 1
346 1029 1
346 1040 1
346 2083 1
346 2101 1
347 18 1
347 1537 1
347 3076 1
348 515 1
349 1 1
349 2 1
349 6 1
349 193 1
349 773 1
349 1283 1
349 2059 1
349 2561 1
350 1025 1
353 1 1
353 2 1
353 9 1
353 163 1
353 194 1
353 261 1
353 265 1
353 385 1
353 387 1
353 394 1
353 459 1
353 514 1
353 531 1
353 545 1
353 566 1
353 641 1
353 657 1
353 693 1
353 838 1
353 1033 1
353 1061 1
353 1473 1
353 1538 1
353 1544 1
353 1547 1
353 1665 1
353 1874 1
353 2049 1
353 2305 1
353 2841 1
353 2953 1
353 3091 1
353 3153 1
353 3209 1
353 3414 1
353 3585 1
354 1 1
354 161 1
354 322 1
354 514 1
354 521 1
354 1025 1
354 1027 1
354 2061 1
354 2130 1
354 2309 1
354 2313 1
354 2697 1
355 206 1
355 385 1
355 545 1
355 581 1
355 1281 1
355 1351 1
355 2133 1
355 2185 1
355 3417 1
356 2058 1
357 49 1
357 74 1
357 85 1
357 156 1
357 1226 1
357 1547 1
357 2053 1
357 2242 1
357 3654 1
358 531 1
358 1027 1
358 1181 1
358 2113 1
359 1025 1
359 1293 1
359 1612 1
359 1689 1
360 513 1
361 1 1
361 7 1
361 97 1
361 257 1
361 261 1
361 441 1
361 513 1
361 1045 1
361 1537 1
361 1538 1
361 2822 1
361 3114 1
362 143 1
363 1 1
363 17 1
363 146 1
363 430 1
363 2051 1
363 2561 1
363 3137 1
364 1221 1
364 2057 1
365 514 1
365 1093 1
365 2951 1
366 145 1
366 1684 1
367 3235 1
369 18 1
369 33 1
369 345 1
369 514 1
369 660 1
369 690 1
369 1828 1
369 2202 1
369 2305 1
369 2338 1
369 2637 1
369 3082 1
369 3242 1
369 3249 1
369 3450 1
370 1 1
370 630 1
370 1059 1
370 1221 1
370 1545 1
371 2 1
371 243 1
371 649 1
371 3115 1
372 65 1
372 2249 1
373 3 1
373 515 1
373 2593 1
374 145 1
374 161 1
375 10 1
375 1189 1
377 65 1
377 268 1
377 329 1
377 2051 1
377 2114 1
378 2049 1
379 137 1
385 1 1
385 2 1
385 5 1
385 6 1
385 9 1
385 10 1
385 11 1
385 13 1
385 17 1
385 18 1
385 22 1
385 27 1
385 33 1
385 41 1
385 65 1
385 67 1
385 71 1
385 75 1
385 81 1
385 97 1
385 109 1
385 135 1
385 145 1
385 149 1
385 165 1
385 186 1
385 257 1
385 259 1
385 263 1
385 270 1
385 290 1
385 292 1
385 353 1
385 355 1
385 388 1
385 393 1
385 429 1
385 473 1
385 478 1
385 525 1
385 545 1
385 550 1
385 569 1
385 578 1
385 622 1
385 641 1
385 650 1
385 753 1
385 759 1
385 835 1
385 901 1
385 1025 1
385 1027 1
385 1066 1
385 1088 1
385 1101 1
385 1153 1
385 1195 1
385 1218 1
385 1241 1
385 1284 1
385 1313 1
385 1337 1
385 1361 1
385 1417 1
385 1442 1
385 1537 1
385 1539 1
385 1651 1
385 1798 1
385 2049 1
385 2050 1
385 2058 1
385 2081 1
385 2116 1
385 2121 1
385 2151 1
385 2177 1
385 2183 1
385 2185 1
385 2193 1
385 2243 1
385 2324 1
385 2339 1
385 2565 1
385 2643 1
385 2647 1
385 2657 1
385 2658 1
385 2817 1
385 2818 1
385 3073 1
385 3085 1
385 3089 1
385 3104 1
385 3141 1
385 3171 1
385 3185 1
385 3337 1
386 1 1
386 2 1
386 3 1
386 6 1
386 17 1
386 21 1
386 35 1
386 66 1
386 70 1
386 75 1
386 98 1
386 102 1
386 146 1
386 226 1
386 281 1
386 521 1
386 529 1
386 530 1
386 545 1
386 577 1
386 1026 1
386 1041 1
386 1249 1
386 1425 1
386 1793 1
386 2055 1
386 2099 1
386 2113 1
386 2273 1
386 2593 1
386 3281 1
386 3330 1
386 3337 1
386 3634 1
386 3655 1
387 1 1
387 5 1
387 9 1
387 19 1
387 33 1
387 81 1
387 139 1
387 145 1
387 198 1
387 281 1
387 353 1
387 522 1
387 529 1
387 595 1
387 617 1
387 799 1
387 963 1
387 1029 1
387 1101 1
387 1106 1
387 1125 1
387 1173 1
387 1242 1
387 1379 1
387 1572 1
387 2067 1
387 2077 1
387 2085 1
387 2185 1
387 2305 1
387 2369 1
387 2585 1
387 2595 1
387 3073 1
387 3473 1
387 3617 1
387 3643 1
388 11 1
388 66 1
388 69 1
388 114 1
388 325 1
388 385 1
388 545 1
388 641 1
388 770 1
388 1043 1
388 2081 1
388 2093 1
388 2561 1
388 3715 1
389 1 1
389 4 1
389 9 1
389 10 1
389 15 1
389 41 1
389 49 1
389 81 1
389 89 1
389 97 1
389 99 1
389 145 1
389 194 1
389 257 1
389 513 1
389 644 1
389 748 1
389 777 1
389 833 1
389 969 1
389 977 1
389 1029 1
389 1057 1
389 1223 1
389 1283 1
389 1289 1
389 1298 1
389 2053 1
389 2060 1
389 2307 1
389 2570 1
389 3203 1
389 3263 1
389 3585 1
389 3601 1
390 3 1
390 5 1
390 33 1
390 146 1
390 162 1
390 210 1
390 258 1
390 518 1
390 547 1
390 721 1
390 1601 1
391 1 1
391 17 1
391 130 1
391 334 1
391 673 1
391 1026 1
391 1553 1
391 3382 1
392 2082 1
393 1 1
393 5 1
393 14 1
393 17 1
393 21 1
393 22 1
393 23 1
393 25 1
393 65 1
393 105 1
393 257 1
393 266 1
393 321 1
393 341 1
393 385 1
393 417 1
393 514 1
393 515 1
393 520 1
393 582 1
393 642 1
393 781 1
393 871 1
393 1031 1
393 1105 1
393 1153 1
393 1155 1
393 1307 1
393 1317 1
393 2049 1
393 2050 1
393 2060 1
393 2065 1
393 2118 1
393 2129 1
393 2137 1
393 2308 1
393 2818 1
393 3107 1
394 1 1
394 2 1
394 10 1
394 41 1
394 49 1
394 65 1
394 353 1
394 513 1
394 545 1
394 1049 1
394 1793 1
394 2821 1
394 3208 1
395 9 1
395 18 1
395 69 1
395 115 1
395 145 1
395 641 1
395 673 1
395 2049 1
395 3329 1
396 73 1
396 3137 1
397 257 1
397 258 1
397 269 1
397 307 1
397 337 1
397 771 1
397 1025 1
397 1029 1
397 1538 1
397 2052 1
397 2053 1
397 2113 1
397 2131 1
398 5 1
398 1059 1
398 3073 1
399 435 1
399 1049 1
399 1410 1
400 2772 1
401 2 1
401 4 1
401 19 1
401 26 1
401 66 1
401 67 1
401 99 1
401 129 1
401 130 1
401 577 1
401 585 1
401 645 1
401 721 1
401 783 1
401 1032 1
401 1061 1
401 1236 1
401 1422 1
401 1553 1
401 1609 1
401 1859 1
401 2055 1
401 2065 1
401 2081 1
401 2093 1
401 2113 1
401 2433 1
401 2593 1
401 3333 1
401 3394 1
402 1 1
402 2 1
402 14 1
402 28 1
402 65 1
402 145 1
402 289 1
402 338 1
402 521 1
402 546 1
402 595 1
402 2049 1
403 5 1
403 263 1
403 439 1
403 1189 1
403 2106 1
403 3588 1
404 39 1
404 451 1
404 2089 1
405 3 1
405 257 1
405 420 1
405 835 1
405 865 1
405 1029 1
405 1079 1
405 1282 1
405 1329 1
405 2305 1
405 3233 1
406 59 1
406 257 1
407 2 1
407 647 1
407 1602 1
407 2049 1
407 2093 1
408 65 1
408 776 1
409 66 1
409 86 1
409 259 1
409 530 1
409 580 1
409 642 1
409 905 1
409 1026 1
409 1609 1
409 2626 1
409 2954 1
409 3089 1
410 35 1
410 194 1
410 259 1
410 1031 1
411 263 1
411 289 1
411 547 1
411 1041 1
411 1249 1
411 2053 1
411 3086 1
412 1 1
413 577 1
413 593 1
414 3073 1
415 2307 1
417 1 1
417 2 1
417 3 1
417 21 1
417 35 1
417 41 1
417 73 1
417 75 1
417 135 1
417 173 1
417 257 1
417 329 1
417 393 1
417 513 1
417 563 1
417 789 1
417 1027 1
417 1029 1
417 1153 1
417 1538 1
417 1549 1
417 1553 1
417 1610 1
417 1665 1
417 1862 1
417 2049 1
417 2053 1
417 2074 1
417 2129 1
417 2133 1
417 2306 1
417 2337 1
417 2567 1
417 2721 1
417 3329 1
418 3 1
418 65 1
418 138 1
418 262 1
418 333 1
418 523 1
418 533 1
418 545 1
418 1025 1
418 2081 1
418 2179 1
419 1 1
419 10 1
419 577 1
419 1041 1
419 1603 1
419 2053 1
419 2073 1
419 2209 1
419 3079 1
420 5 1
420 163 1
420 193 1
420 405 1
420 987 1
420 1053 1
420 2365 1
421 1 1
421 3 1
421 883 1
421 1193 1
421 1796 1
421 2049 1
421 2177 1
421 2881 1
422 706 1
422 1586 1
422 1641 1
423 1 1
423 49 1
423 149 1
423 641 1
424 129 1
424 150 1
424 272 1
425 6 1
425 7 1
425 27 1
425 31 1
425 33 1
425 149 1
425 257 1
425 259 1
425 260 1
425 329 1
425 577 1
425 1193 1
426 261 1
426 513 1
426 1093 1
427 66 1
427 3089 1
428 77 1
429 1 1
429 135 1
429 147 1
429 385 1
429 532 1
429 3334 1
430 363 1
432 1553 1
433 1 1
433 3 1
433 18 1
433 21 1
433 41 1
433 65 1
433 99 1
433 145 1
433 200 1
433 513 1
433 1059 1
433 1313 1
433 2051 1
433 2057 1
433 2221 1
433 3073 1
433 3401 1
434 1025 1
434 2113 1
435 13 1
435 194 1
435 399 1
435 1038 1
436 161 1
437 3 1
437 267 1
437 1537 1
438 561 1
439 403 1
439 1219 1
441 23 1
441 65 1
441 263 1
441 264 1
441 361 1
441 1099 1
441 1418 1
441 1541 1
442 41 1
442 129 1
443 1553 1
444 29 1
445 65 1
445 1060 1
449 3 1
449 6 1
449 10 1
449 17 1
449 41 1
449 82 1
449 133 1
449 145 1
449 262 1
449 263 1
449 289 1
449 290 1
449 294 1
449 299 1
449 321 1
449 513 1
449 514 1
449 585 1
449 627 1
449 780 1
449 833 1
449 1041 1
449 1153 1
449 1825 1
449 1829 1
449 2193 1
449 2641 1
449 2817 1
449 3427 1
449 3977 1
450 1 1
450 10 1
450 23 1
450 515 1
450 521 1
450 833 1
450 1025 1
450 1027 1
450 1042 1
450 2563 1
450 2689 1
451 10 1
451 13 1
451 17 1
451 25 1
451 310 1
451 404 1
451 643 1
451 1026 1
451 1089 1
451 2561 1
451 3073 1
451 3929 1
452 289 1
452 1281 1
452 2565 1
452 2593 1
453 33 1
453 147 1
453 193 1
453 260 1
453 479 1
453 517 1
453 577 1
453 1033 1
453 1282 1
454 1 1
454 73 1
454 513 1
454 1057 1
454 2060 1
454 2850 1
454 3332 1
455 18 1
455 825 1
456 773 1
457 1 1
457 20 1
457 37 1
457 129 1
457 133 1
457 195 1
457 515 1
457 521 1
457 593 1
457 1105 1
457 1158 1
457 1281 1
457 2067 1
458 138 1
458 257 1
458 552 1
458 1545 1
459 353 1
459 2120 1
461 145 1
461 313 1
461 518 1
462 513 1
465 1 1
465 134 1
465 546 1
465 593 1
465 771 1
465 1049 1
465 1297 1
465 2085 1
465 2145 1
465 3337 1
466 9 1
466 66 1
466 1045 1
466 1345 1
466 2179 1
467 1109 1
469 273 1
469 545 1
469 577 1
469 1027 1
471 1 1
471 1057 1
473 5 1
473 385 1
474 13 1
474 129 1
474 525 1
474 2057 1
476 5 1
476 2177 1
478 385 1
479 453 1
479 514 1
481 342 1
481 515 1
481 1037 1
481 1313 1
481 1607 1
481 2079 1
481 2197 1
481 2881 1
481 3593 1
482 11 1
482 18 1
483 309 1
483 2177 1
483 2573 1
483 3330 1
484 2594 1
485 61 1
485 1057 1
485 1065 1
485 2317 1
486 2417 1
489 2 1
489 1537 1
489 2049 1
491 6 1
491 19 1
492 1 1
493 129 1
493 1035 1
497 49 1
497 257 1
497 683 1
497 1185 1
498 17 1
498 2305 1
498 3229 1
501 3777 1
505 9 1
511 129 1
513 1 1
513 2 1
513 3 1
513 5 1
513 6 1
513 7 1
513 9 1
513 10 1
513 11 1
513 12 1
513 13 1
513 14 1
513 17 1
513 18 1
513 19 1
513 21 1
513 22 1
513 25 1
513 28 1
513 29 1
513 33 1
513 34 1
513 36 1
513 37 1
513 39 1
513 41 1
513 42 1
513 43 1
513 45 1
513 49 1
513 53 1
513 65 1
513 66 1
513 67 1
513 68 1
513 69 1
513 70 1
513 71 1
513 73 1
513 77 1
513 81 1
513 82 1
513 89 1
513 91 1
513 97 1
513 98 1
513 100 1
513 101 1
513 103 1
513 105 1
513 115 1
513 118 1
513 124 1
513 129 1
513 130 1
513 131 1
513 133 1
513 137 1
513 141 1
513 146 1
513 148 1
513 149 1
513 159 1
513 161 1
513 162 1
513 170 1
513 178 1
513 186 1
513 193 1
513 195 1
513 197 1
513 201 1
513 203 1
513 219 1
513 225 1
513 229 1
513 246 1
513 257 1
513 258 1
513 261 1
513 265 1
513 273 1
513 274 1
513 275 1
513 285 1
513 289 1
513 293 1
513 297 1
513 305 1
513 321 1
513 322 1
513 323 1
513 329 1
513 330 1
513 331 1
513 337 1
513 360 1
513 361 1
513 389 1
513 394 1
513 417 1
513 426 1
513 433 1
513 449 1
513 454 1
513 462 1
513 514 1
513 515 1
513 517 1
513 518 1
513 519 1
513 522 1
513 525 1
513 529 1
513 533 1
513 535 1
513 537 1
513 540 1
513 545 1
513 546 1
513 555 1
513 561 1
513 563 1
513 577 1
513 578 1
513 579 1
513 580 1
513 581 1
513 595 1
513 601 1
513 645 1
513 649 1
513 663 1
513 673 1
513 675 1
513 729 1
513 733 1
513 769 1
513 771 1
513 773 1
513 779 1
513 785 1
513 795 1
513 797 1
513 809 1
513 833 1
513 835 1
513 857 1
513 897 1
513 993 1
513 1025 1
513 1026 1
513 1027 1
513 1029 1
513 1031 1
513 1034 1
513 1037 1
513 1038 1
513 1041 1
513 1046 1
513 1057 1
513 1058 1
513 1064 1
513 1089 1
513 1094 1
513 1103 1
513 1105 1
513 1106 1
513 1115 1
513 1122 1
513 1141 1
513 1153 1
513 1154 1
513 1157 1
513 1159 1
513 1170 1
513 1171 1
513 1177 1
513 1186 1
513 1189 1
513 1205 1
513 1210 1
513 1251 1
513 1253 1
513 1265 1
513 1283 1
513 1284 1
513 1289 1
513 1316 1
513 1330 1
513 1345 1
513 1377 1
513 1379 1
513 1412 1
513 1413 1
513 1445 1
513 1473 1
513 1537 1
513 1538 1
513 1545 1
513 1554 1
513 1569 1
513 1609 1
513 1625 1
513 1638 1
513 1665 1
513 1734 1
513 1797 1
513 1841 1
513 1925 1
513 1937 1
513 2049 1
513 2050 1
513 2051 1
513 2053 1
513 2054 1
513 2055 1
513 2057 1
513 2063 1
513 2065 1
513 2066 1
513 2069 1
513 2081 1
513 2083 1
513 2085 1
513 2089 1
513 2093 1
513 2101 1
513 2105 1
513 2117 1
513 2119 1
513 2121 1
513 2122 1
513 2129 1
513 2131 1
513 2136 1
513 2141 1
513 2144 1
513 2146 1
513 2147 1
513 2154 1
513 2179 1
513 2189 1
513 2190 1
513 2193 1
513 2195 1
513 2209 1
513 2210 1
513 2221 1
513 2241 1
513 2249 1
513 2305 1
513 2306 1
513 2317 1
513 2321 1
513 2337 1
513 2385 1
513 2451 1
513 2457 1
513 2481 1
513 2505 1
513 2561 1
513 2563 1
513 2569 1
513 2575 1
513 2593 1
513 2626 1
513 2629 1
513 2643 1
513 2677 1
513 2733 1
513 2756 1
513 2825 1
513 2835 1
513 2946 1
513 2993 1
513 3001 1
513 3073 1
513 3079 1
513 3081 1
513 3091 1
513 3103 1
513 3114 1
513 3137 1
513 3138 1
513 3139 1
513 3142 1
513 3205 1
513 3235 1
513 3313 1
513 3331 1
513 3333 1
513 3399 1
513 3585 1
513 3587 1
513 3599 1
513 3684 1
513 3745 1
513 3881 1
514 1 1
514 2 1
514 5 1
514 6 1
514 7 1
514 9 1
514 10 1
514 17 1
514 23 1
514 25 1
514 33 1
514 49 1
514 65 1
514 67 1
514 81 1
514 83 1
514 129 1
514 130 1
514 133 1
514 138 1
514 162 1
514 165 1
514 166 1
514 171 1
514 225 1
514 257 1
514 265 1
514 266 1
514 321 1
514 325 1
514 353 1
514 354 1
514 365 1
514 369 1
514 393 1
514 449 1
514 479 1
514 513 1
514 516 1
514 521 1
514 522 1
514 545 1
514 609 1
514 645 1
514 748 1
514 769 1
514 786 1
514 809 1
514 819 1
514 1025 1
514 1027 1
514 1033 1
514 1041 1
514 1046 1
514 1080 1
514 1093 1
514 1153 1
514 1169 1
514 1234 1
514 1249 1
514 1281 1
514 1537 1
514 1544 1
514 1549 1
514 1569 1
514 1626 1
514 1669 1
514 1857 1
514 2049 1
514 2053 1
514 2054 1
514 2057 1
514 2067 1
514 2070 1
514 2081 1
514 2121 1
514 2122 1
514 2125 1
514 2141 1
514 2182 1
514 2206 1
514 2247 1
514 2305 1
514 2321 1
514 2339 1
514 2373 1
514 2449 1
514 2561 1
514 2625 1
514 2707 1
514 2885 1
514 2937 1
514 3073 1
514 3112 1
514 3219 1
514 3330 1
514 3493 1
514 3573 1
515 1 1
515 2 1
515 3 1
515 5 1
515 9 1
515 10 1
515 11 1
515 17 1
515 18 1
515 20 1
515 21 1
515 25 1
515 33 1
515 35 1
515 39 1
515 44 1
515 49 1
515 51 1
515 65 1
515 66 1
515 77 1
515 89 1
515 97 1
515 129 1
515 131 1
515 167 1
515 178 1
515 179 1
515 195 1
515 230 1
515 259 1
515 273 1
515 289 1
515 291 1
515 305 1
515 306 1
515 321 1
515 325 1
515 348 1
515 373 1
515 393 1
515 450 1
515 457 1
515 481 1
515 513 1
515 517 1
515 519 1
515 521 1
515 527 1
515 530 1
515 534 1
515 536 1
515 549 1
515 610 1
515 621 1
515 645 1
515 706 1
515 740 1
515 770 1
515 785 1
515 789 1
515 969 1
515 1027 1
515 1049 1
515 1051 1
515 1067 1
515 1091 1
515 1125 1
515 1156 1
515 1281 1
515 1361 1
515 1378 1
515 1425 1
515 1473 1
515 1481 1
515 1642 1
515 1666 1
515 1795 1
515 1907 1
515 2053 1
515 2054 1
515 2057 1
515 2129 1
515 2148 1
515 2150 1
515 2157 1
515 2177 1
515 2178 1
515 2193 1
515 2305 1
515 2307 1
515 2310 1
515 2322 1
515 2372 1
515 2561 1
515 2603 1
515 2628 1
515 2882 1
515 3158 1
515 3201 1
515 3265 1
515 3329 1
515 3558 1
515 3697 1
515 3873 1
516 3 1
516 5 1
516 71 1
516 74 1
516 129 1
516 130 1
516 137 1
516 193 1
516 201 1
516 211 1
516 258 1
516 273 1
516 289 1
516 514 1
516 537 1
516 585 1
516 619 1
516 765 1
516 801 1
516 1057 1
516 2050 1
516 2059 1
516 2067 1
516 2106 1
516 2214 1
516 2306 1
516 2325 1
516 2433 1
516 2972 1
516 3073 1
516 3346 1
517 1 1
517 2 1
517 3 1
517 9 1
517 15 1
517 17 1
517 18 1
517 19 1
517 33 1
517 34 1
517 41 1
517 65 1
517 69 1
517 73 1
517 74 1
517 99 1
517 107 1
517 122 1
517 129 1
517 131 1
517 132 1
517 145 1
517 147 1
517 164 1
517 201 1
517 257 1
517 258 1
517 259 1
517 261 1
517 281 1
517 290 1
517 309 1
517 453 1
517 513 1
517 515 1
517 529 1
517 593 1
517 641 1
517 642 1
517 658 1
517 702 1
517 772 1
517 787 1
517 1025 1
517 1026 1
517 1034 1
517 1045 1
517 1047 1
517 1057 1
517 1060 1
517 1065 1
517 1130 1
517 1154 1
517 1155 1
517 1157 1
517 1217 1
517 1452 1
517 1547 1
517 1604 1
517 1625 1
517 1867 1
517 1942 1
517 2049 1
517 2057 1
517 2081 1
517 2089 1
517 2113 1
517 2145 1
517 2177 1
517 2193 1
517 2219 1
517 2241 1
517 2244 1
517 2473 1
517 2481 1
517 2586 1
517 2774 1
517 2894 1
517 2897 1
517 3081 1
517 3082 1
517 3171 1
517 3203 1
517 3219 1
517 3338 1
517 3637 1
517 3714 1
517 4051 1
518 1 1
518 2 1
518 129 1
518 130 1
518 209 1
518 276 1
518 390 1
518 461 1
518 513 1
518 521 1
518 577 1
518 657 1
518 673 1
518 1025 1
518 1045 1
518 1061 1
518 1169 1
518 1233 1
518 1418 1
518 1540 1
518 2050 1
518 2052 1
518 2053 1
518 2058 1
518 2181 1
518 2561 1
518 3097 1
519 18 1
519 19 1
519 20 1
519 49 1
519 68 1
519 69 1
519 76 1
519 81 1
519 99 1
519 169 1
519 177 1
519 225 1
519 275 1
519 287 1
519 337 1
519 513 1
519 515 1
519 579 1
519 675 1
519 769 1
519 777 1
519 1043 1
519 1073 1
519 1122 1
519 1617 1
519 2049 1
519 2053 1
519 2056 1
519 2067 1
519 2083 1
519 2084 1
519 2178 1
519 2449 1
519 2708 1
519 3073 1
519 3242 1
520 1 1
520 9 1
520 33 1
520 42 1
520 65 1
520 129 1
520 260 1
520 393 1
520 526 1
520 1077 1
520 1125 1
520 1163 1
520 1301 1
520 2117 1
520 2305 1
520 3075 1
520 3825 1
521 1 1
521 3 1
521 5 1
521 8 1
521 9 1
521 10 1
521 11 1
521 17 1
521 21 1
521 33 1
521 35 1
521 37 1
521 41 1
521 43 1
521 49 1
521 52 1
521 65 1
521 66 1
521 67 1
521 69 1
521 79 1
521 81 1
521 93 1
521 98 1
521 101 1
521 102 1
521 129 1
521 130 1
521 132 1
521 137 1
521 149 1
521 153 1
521 161 1
521 163 1
521 193 1
521 199 1
521 233 1
521 257 1
521 259 1
521 262 1
521 265 1
521 269 1
521 273 1
521 282 1
521 323 1
521 332 1
521 336 1
521 354 1
521 386 1
521 402 1
521 450 1
521 457 1
521 514 1
521 515 1
521 518 1
521 522 1
521 545 1
521 577 1
521 593 1
521 641 1
521 643 1
521 673 1
521 740 1
521 778 1
521 807 1
521 933 1
521 1027 1
521 1041 1
521 1042 1
521 1045 1
521 1053 1
521 1062 1
521 1074 1
521 1090 1
521 1096 1
521 1106 1
521 1107 1
521 1123 1
521 1153 1
521 1156 1
521 1161 1
521 1169 1
521 1173 1
521 1204 1
521 1282 1
521 1289 1
521 1321 1
521 1538 1
521 1569 1
521 1803 1
521 2049 1
521 2053 1
521 2057 1
521 2065 1
521 2074 1
521 2085 1
521 2113 1
521 2116 1
521 2121 1
521 2145 1
521 2179 1
521 2181 1
521 2338 1
521 2562 1
521 2585 1
521 2945 1
521 3334 1
521 3721 1
521 3777 1
521 3889 1
522 1 1
522 5 1
522 9 1
522 17 1
522 21 1
522 29 1
522 37 1
522 47 1
522 68 1
522 81 1
522 101 1
522 131 1
522 137 1
522 145 1
522 163 1
522 193 1
522 257 1
522 326 1
522 387 1
522 513 1
522 514 1
522 521 1
522 529 1
522 681 1
522 773 1
522 1033 1
522 1044 1
522 1059 1
522 1537 1
522 2061 1
522 2097 1
522 2117 1
522 2177 1
522 2185 1
522 2249 1
522 2306 1
522 2326 1
522 2338 1
522 3111 1
523 1 1
523 7 1
523 9 1
523 11 1
523 13 1
523 17 1
523 34 1
523 82 1
523 129 1
523 257 1
523 291 1
523 418 1
523 676 1
523 938 1
523 1027 1
523 1037 1
523 1039 1
523 1041 1
523 1093 1
523 1122 1
523 1314 1
523 1425 1
523 1606 1
523 1667 1
523 1793 1
523 2049 1
523 2057 1
523 2081 1
523 2266 1
523 2305 1
523 3185 1
524 21 1
524 89 1
524 98 1
524 291 1
524 650 1
524 1043 1
524 1550 1
524 2049 1
524 2055 1
524 2101 1
524 2401 1
524 3093 1
525 1 1
525 3 1
525 7 1
525 18 1
525 19 1
525 73 1
525 83 1
525 129 1
525 204 1
525 241 1
525 267 1
525 269 1
525 273 1
525 291 1
525 321 1
525 325 1
525 385 1
525 474 1
525 513 1
525 530 1
525 546 1
525 705 1
525 773 1
525 913 1
525 1025 1
525 1037 1
525 1049 1
525 1169 1
525 1473 1
525 1609 1
525 1859 1
525 2050 1
525 2058 1
525 2069 1
525 2081 1
525 2122 1
525 2177 1
525 2376 1
525 2561 1
525 2562 1
525 2645 1
525 3115 1
525 3458 1
526 1 1
526 17 1
526 49 1
526 137 1
526 257 1
526 520 1
526 569 1
526 641 1
526 1027 1
526 2306 1
526 2977 1
526 3841 1
527 1 1
527 98 1
527 145 1
527 515 1
527 1041 1
527 1155 1
527 1201 1
527 1665 1
527 2059 1
527 2176 1
527 2369 1
527 2641 1
527 2829 1
527 3130 1
527 3537 1
528 833 1
528 1185 1
528 2370 1
528 2401 1
528 2689 1
529 1 1
529 2 1
529 3 1
529 5 1
529 7 1
529 9 1
529 11 1
529 14 1
529 21 1
529 23 1
529 25 1
529 41 1
529 49 1
529 51 1
529 60 1
529 65 1
529 71 1
529 72 1
529 73 1
529 90 1
529 111 1
529 129 1
529 130 1
529 136 1
529 137 1
529 142 1
529 146 1
529 147 1
529 161 1
529 162 1
529 165 1
529 171 1
529 193 1
529 257 1
529 260 1
529 263 1
529 265 1
529 291 1
529 302 1
529 324 1
529 340 1
529 386 1
529 387 1
529 513 1
529 517 1
529 522 1
529 533 1
529 545 1
529 546 1
529 577 1
529 581 1
529 611 1
529 673 1
529 685 1
529 705 1
529 769 1
529 841 1
529 865 1
529 909 1
529 969 1
529 1025 1
529 1034 1
529 1045 1
529 1057 1
529 1061 1
529 1090 1
529 1106 1
529 1219 1
529 1281 1
529 1289 1
529 1325 1
529 1411 1
529 1413 1
529 1441 1
529 1542 1
529 1553 1
529 1569 1
529 1571 1
529 1590 1
529 1618 1
529 1665 1
529 1697 1
529 1807 1
529 2049 1
529 2052 1
529 2053 1
529 2065 1
529 2081 1
529 2085 1
529 2109 1
529 2113 1
529 2120 1
529 2129 1
529 2148 1
529 2181 1
529 2312 1
529 2318 1
529 2433 1
529 2691 1
529 2729 1
529 2817 1
529 2826 1
529 3594 1
529 4057 1
530 1 1
530 5 1
530 17 1
530 19 1
530 49 1
530 65 1
530 129 1
530 153 1
530 163 1
530 225 1
530 257 1
530 325 1
530 386 1
530 409 1
530 515 1
530 525 1
530 645 1
530 775 1
530 897 1
530 1025 1
530 1026 1
530 1061 1
530 1097 1
530 1886 1
530 2113 1
530 2181 1
530 2449 1
530 2625 1
530 3241 1
530 3337 1
531 1 1
531 3 1
531 9 1
531 18 1
531 33 1
531 65 1
531 75 1
531 257 1
531 290 1
531 305 1
531 323 1
531 353 1
531 358 1
531 534 1
531 609 1
531 705 1
531 961 1
531 1025 1
531 1037 1
531 1041 1
531 1048 1
531 1146 1
531 1153 1
531 1286 1
531 1289 1
531 2081 1
531 2186 1
531 2313 1
531 2317 1
531 2754 1
531 3146 1
531 3585 1
531 3587 1
532 1 1
532 17 1
532 68 1
532 429 1
532 1025 1
532 1409 1
532 1607 1
532 2097 1
532 2177 1
532 2310 1
532 3650 1
533 1 1
533 4 1
533 5 1
533 6 1
533 17 1
533 25 1
533 26 1
533 33 1
533 42 1
533 72 1
533 73 1
533 75 1
533 135 1
533 161 1
533 189 1
533 257 1
533 258 1
533 418 1
533 513 1
533 529 1
533 546 1
533 641 1
533 1025 1
533 1026 1
533 1027 1
533 1029 1
533 1057 1
533 1067 1
533 1073 1
533 1096 1
533 1281 1
533 1439 1
533 1548 1
533 1633 1
533 1795 1
533 2051 1
533 2826 1
533 3106 1
533 3329 1
533 4002 1
534 3 1
534 149 1
534 279 1
534 515 1
534 531 1
534 1042 1
534 1445 1
534 1665 1
534 2057 1
534 2633 1
534 3073 1
534 3169 1
534 3274 1
535 1 1
535 6 1
535 41 1
535 65 1
535 129 1
535 273 1
535 290 1
535 513 1
535 566 1
535 1033 1
535 1098 1
536 129 1
536 257 1
536 515 1
536 1281 1
537 1 1
537 3 1
537 5 1
537 11 1
537 27 1
537 29 1
537 57 1
537 70 1
537 130 1
537 133 1
537 165 1
537 265 1
537 273 1
537 325 1
537 513 1
537 516 1
537 547 1
537 674 1
537 713 1
537 745 1
537 1026 1
537 1034 1
537 1045 1
537 1156 1
537 1186 1
537 2049 1
537 2054 1
537 2057 1
537 2058 1
537 2081 1
537 2101 1
537 2243 1
537 2305 1
537 2307 1
537 2433 1
537 2467 1
537 3137 1
537 3537 1
537 3598 1
538 1 1
538 3 1
538 9 1
538 27 1
538 49 1
538 73 1
538 115 1
538 130 1
538 138 1
538 166 1
538 237 1
538 257 1
538 275 1
538 649 1
538 1111 1
538 1233 1
538 1539 1
538 2081 1
538 2625 1
538 2706 1
538 3169 1
539 145 1
539 165 1
539 258 1
539 325 1
539 769 1
539 1042 1
539 1153 1
539 1281 1
540 289 1
540 513 1
540 2117 1
540 2731 1
541 11 1
541 226 1
541 617 1
541 1475 1
541 1738 1
542 65 1
542 2098 1
542 2177 1
542 2310 1
542 3083 1
543 1039 1
544 2101 1
544 2205 1
545 1 1
545 3 1
545 5 1
545 9 1
545 17 1
545 21 1
545 25 1
545 29 1
545 33 1
545 34 1
545 35 1
545 46 1
545 49 1
545 50 1
545 51 1
545 54 1
545 57 1
545 65 1
545 69 1
545 90 1
545 98 1
545 99 1
545 129 1
545 130 1
545 132 1
545 133 1
545 163 1
545 199 1
545 212 1
545 258 1
545 261 1
545 262 1
545 271 1
545 273 1
545 283 1
545 289 1
545 291 1
545 299 1
545 322 1
545 323 1
545 325 1
545 353 1
545 355 1
545 385 1
545 386 1
545 388 1
545 394 1
545 418 1
545 469 1
545 513 1
545 514 1
545 521 1
545 529 1
545 547 1
545 577 1
545 580 1
545 585 1
545 610 1
545 643 1
545 657 1
545 673 1
545 684 1
545 787 1
545 802 1
545 813 1
545 825 1
545 833 1
545 837 1
545 973 1
545 1025 1
545 1026 1
545 1033 1
545 1057 1
545 1074 1
545 1089 1
545 1121 1
545 1155 1
545 1192 1
545 1281 1
545 1285 1
545 1289 1
545 1291 1
545 1321 1
545 1537 1
545 1588 1
545 1611 1
545 1636 1
545 1745 1
545 1939 1
545 2050 1
545 2052 1
545 2053 1
545 2054 1
545 2055 1
545 2057 1
545 2065 1
545 2082 1
545 2083 1
545 2089 1
545 2104 1
545 2113 1
545 2130 1
545 2132 1
545 2148 1
545 2181 1
545 2182 1
545 2196 1
545 2210 1
545 2293 1
545 2305 1
545 2353 1
545 2449 1
545 2627 1
545 2695 1
545 2757 1
545 2817 1
545 3077 1
545 3079 1
545 3080 1
545 3081 1
545 3090 1
545 3092 1
545 3105 1
545 3141 1
545 3201 1
545 3233 1
545 3381 1
545 3409 1
545 3585 1
545 3845 1
546 1 1
546 2 1
546 21 1
546 34 1
546 67 1
546 109 1
546 133 1
546 137 1
546 174 1
546 193 1
546 257 1
546 259 1
546 303 1
546 402 1
546 465 1
546 513 1
546 525 1
546 529 1
546 533 1
546 547 1
546 577 1
546 775 1
546 1159 1
546 1283 1
546 1866 1
546 2051 1
546 2053 1
546 2100 1
546 2177 1
546 2182 1
546 2309 1
546 2468 1
546 2753 1
547 1 1
547 7 1
547 8 1
547 10 1
547 65 1
547 77 1
547 82 1
547 129 1
547 169 1
547 195 1
547 325 1
547 328 1
547 341 1
547 390 1
547 411 1
547 537 1
547 545 1
547 546 1
547 577 1
547 681 1
547 834 1
547 839 1
547 897 1
547 1027 1
547 1028 1
547 1089 1
547 1093 1
547 1169 1
547 1409 1
547 1605 1
547 1673 1
547 1677 1
547 2051 1
547 2053 1
547 2077 1
547 2209 1
547 2212 1
547 2305 1
547 2309 1
547 2569 1
547 2690 1
547 3363 1
548 21 1
548 47 1
548 137 1
548 146 1
548 161 1
548 193 1
548 241 1
548 277 1
548 1083 1
548 1217 1
548 2185 1
548 2371 1
548 2569 1
548 3505 1
548 3649 1
549 1 1
549 9 1
549 65 1
549 80 1
549 81 1
549 129 1
549 141 1
549 161 1
549 163 1
549 257 1
549 515 1
549 561 1
549 603 1
549 641 1
549 1028 1
549 1073 1
549 1217 1
549 1345 1
549 1665 1
549 2061 1
549 2182 1
549 2185 1
549 2451 1
549 3147 1
549 3426 1
550 1 1
550 2 1
550 18 1
550 73 1
550 85 1
550 89 1
550 164 1
550 260 1
550 274 1
550 385 1
550 1025 1
550 1233 1
550 2061 1
551 4 1
551 281 1
551 609 1
551 1059 1
551 1161 1
551 2057 1
551 2227 1
551 2857 1
551 3201 1
552 165 1
552 257 1
552 458 1
552 1665 1
553 1 1
553 5 1
553 35 1
553 38 1
553 105 1
553 142 1
553 257 1
553 289 1
553 325 1
553 589 1
553 845 1
553 929 1
553 1029 1
553 1033 1
553 1090 1
553 1092 1
553 1445 1
553 1555 1
553 2049 1
553 2051 1
553 2053 1
553 2061 1
553 2065 1
553 2180 1
553 2193 1
553 2210 1
553 2385 1
553 3073 1
553 3483 1
553 3649 1
554 3 1
554 12 1
554 17 1
554 43 1
554 81 1
554 134 1
554 322 1
554 578 1
554 1074 1
554 1153 1
554 1169 1
554 1285 1
554 2182 1
554 2441 1
555 2 1
555 33 1
555 259 1
555 323 1
555 513 1
555 806 1
555 1105 1
555 1281 1
555 1385 1
555 1551 1
555 2049 1
555 2333 1
555 2633 1
555 3225 1
556 21 1
556 289 1
556 1093 1
556 2075 1
557 49 1
557 69 1
557 129 1
557 130 1
557 177 1
557 305 1
557 323 1
557 587 1
557 1161 1
557 1347 1
557 2387 1
557 2569 1
557 3076 1
558 5 1
558 647 1
558 1099 1
558 2050 1
558 3114 1
558 3853 1
559 27 1
559 68 1
559 1139 1
559 2129 1
560 321 1
561 1 1
561 3 1
561 10 1
561 12 1
561 13 1
561 18 1
561 33 1
561 53 1
561 78 1
561 81 1
561 82 1
561 129 1
561 193 1
561 265 1
561 438 1
561 513 1
561 549 1
561 1033 1
561 1035 1
561 1098 1
561 1304 1
561 1321 1
561 1329 1
561 1545 1
561 1561 1
561 1781 1
561 2049 1
561 2113 1
561 2433 1
561 3205 1
561 3209 1
562 1 1
562 3 1
562 9 1
562 65 1
562 75 1
562 133 1
562 148 1
562 168 1
562 197 1
562 1165 1
562 1681 1
562 1841 1
562 2053 1
562 2057 1
562 2178 1
562 2181 1
562 3140 1
563 1 1
563 13 1
563 17 1
563 133 1
563 321 1
563 417 1
563 513 1
564 9 1
564 305 1
564 1025 1
564 1474 1
564 1801 1
564 3115 1
565 25 1
565 38 1
565 45 1
565 81 1
565 657 1
565 769 1
565 1665 1
565 1930 1
565 2117 1
565 2226 1
565 2242 1
565 2561 1
565 2573 1
565 2659 1
565 3339 1
566 33 1
566 85 1
566 131 1
566 353 1
566 535 1
567 1 1
567 81 1
567 257 1
569 145 1
569 215 1
569 322 1
569 385 1
569 526 1
569 2081 1
569 2631 1
569 2849 1
569 3077 1
569 3089 1
570 1 1
570 21 1
570 1169 1
570 2049 1
570 2053 1
571 1 1
571 9 1
571 1029 1
571 1571 1
572 2344 1
573 74 1
573 309 1
573 1305 1
573 3337 1
577 1 1
577 2 1
577 3 1
577 4 1
577 5 1
577 9 1
577 17 1
577 19 1
577 25 1
577 26 1
577 27 1
577 33 1
577 34 1
577 35 1
577 55 1
577 57 1
577 65 1
577 66 1
577 67 1
577 81 1
577 97 1
577 113 1
577 114 1
577 129 1
577 134 1
577 142 1
577 145 1
577 147 1
577 161 1
577 177 1
577 178 1
577 195 1
577 196 1
577 257 1
577 259 1
577 261 1
577 271 1
577 281 1
577 289 1
577 291 1
577 297 1
577 299 1
577 325 1
577 386 1
577 401 1
577 413 1
577 419 1
577 425 1
577 453 1
577 469 1
577 513 1
577 518 1
577 521 1
577 529 1
577 545 1
577 546 1
577 547 1
577 617 1
577 643 1
577 648 1
577 770 1
577 875 1
577 1026 1
577 1029 1
577 1034 1
577 1035 1
577 1037 1
577 1041 1
577 1065 1
577 1067 1
577 1089 1
577 1116 1
577 1122 1
577 1171 1
577 1174 1
577 1177 1
577 1185 1
577 1187 1
577 1220 1
577 1281 1
577 1319 1
577 1378 1
577 1417 1
577 1540 1
577 1571 1
577 1603 1
577 1610 1
577 1681 1
577 1741 1
577 1801 1
577 1921 1
577 1955 1
577 2049 1
577 2052 1
577 2053 1
577 2057 1
577 2061 1
577 2082 1
577 2083 1
577 2107 1
577 2118 1
577 2129 1
577 2145 1
577 2177 1
577 2178 1
577 2190 1
577 2305 1
577 2337 1
577 2338 1
577 2376 1
577 2705 1
577 2712 1
577 3082 1
577 3169 1
577 3221 1
577 3361 1
577 3449 1
577 3650 1
577 3731 1
577 3844 1
578 1 1
578 3 1
578 5 1
578 19 1
578 33 1
578 35 1
578 51 1
578 57 1
578 66 1
578 69 1
578 131 1
578 153 1
578 197 1
578 257 1
578 261 1
578 263 1
578 273 1
578 293 1
578 313 1
578 385 1
578 513 1
578 554 1
578 609 1
578 641 1
578 708 1
578 773 1
578 865 1
578 1025 1
578 1034 1
578 2050 1
578 2053 1
578 2081 1
578 2181 1
578 2194 1
578 2227 1
578 2305 1
578 2309 1
578 2437 1
578 2563 1
578 2675 1
578 3261 1
578 3329 1
578 3523 1
578 3601 1
579 1 1
579 9 1
579 11 1
579 37 1
579 39 1
579 45 1
579 51 1
579 76 1
579 89 1
579 100 1
579 129 1
579 131 1
579 225 1
579 261 1
579 273 1
579 513 1
579 519 1
579 887 1
579 947 1
579 1025 1
579 1034 1
579 1065 1
579 1072 1
579 1073 1
579 1089 1
579 1092 1
579 1123 1
579 1171 1
579 1281 1
579 1298 1
579 1569 1
579 2049 1
579 2177 1
579 2305 1
579 2401 1
579 2561 1
579 2570 1
579 2689 1
579 2724 1
579 2729 1
580 13 1
580 17 1
580 57 1
580 181 1
580 409 1
580 513 1
580 545 1
580 681 1
580 799 1
580 1045 1
580 1228 1
581 1 1
581 3 1
581 5 1
581 7 1
581 23 1
581 34 1
581 35 1
581 97 1
581 132 1
581 133 1
581 137 1
581 257 1
581 355 1
581 513 1
581 529 1
581 641 1
581 676 1
581 787 1
581 1025 1
581 1026 1
581 1097 1
581 1282 1
581 1315 1
581 1377 1
581 1537 1
581 1667 1
581 1713 1
581 2055 1
581 2113 1
581 2202 1
581 2313 1
581 2377 1
581 2434 1
581 3073 1
581 3119 1
581 3153 1
582 53 1
582 65 1
582 321 1
582 393 1
582 1073 1
582 1286 1
582 2990 1
582 3077 1
582 3143 1
583 1 1
583 41 1
583 53 1
583 1026 1
583 1153 1
583 1284 1
583 1443 1
583 2561 1
584 86 1
584 2361 1
584 2553 1
584 3081 1
584 3225 1
585 2 1
585 3 1
585 5 1
585 50 1
585 59 1
585 66 1
585 73 1
585 81 1
585 82 1
585 99 1
585 130 1
585 145 1
585 170 1
585 257 1
585 261 1
585 317 1
585 325 1
585 401 1
585 449 1
585 516 1
585 545 1
585 801 1
585 1041 1
585 1045 1
585 1076 1
585 1108 1
585 1109 1
585 1281 1
585 1355 1
585 1362 1
585 1489 1
585 1543 1
585 2049 1
585 2050 1
585 2051 1
585 2229 1
585 2369 1
585 2437 1
585 2826 1
585 3073 1
585 3077 1
585 3393 1
585 3394 1
586 3 1
586 1041 1
586 1058 1
586 1537 1
586 2057 1
586 2187 1
586 2451 1
586 3137 1
587 129 1
587 557 1
587 641 1
587 1033 1
587 1123 1
587 2153 1
587 2578 1
587 3073 1
588 129 1
588 323 1
588 2061 1
589 65 1
589 114 1
589 129 1
589 268 1
589 553 1
589 641 1
589 802 1
589 1122 1
589 1285 1
589 1457 1
589 2777 1
590 9 1
590 23 1
590 53 1
590 134 1
590 2339 1
591 33 1
591 34 1
591 227 1
591 2055 1
591 2081 1
593 1 1
593 2 1
593 6 1
593 15 1
593 18 1
593 19 1
593 23 1
593 33 1
593 37 1
593 41 1
593 44 1
593 51 1
593 69 1
593 154 1
593 258 1
593 413 1
593 457 1
593 465 1
593 517 1
593 521 1
593 645 1
593 770 1
593 817 1
593 914 1
593 971 1
593 1050 1
593 1060 1
593 1155 1
593 1569 1
593 2051 1
593 2058 1
593 2061 1
593 2073 1
593 2084 1
593 2338 1
593 2456 1
593 2612 1
593 2702 1
593 3137 1
594 1 1
594 19 1
594 34 1
594 65 1
594 129 1
594 205 1
594 276 1
594 645 1
594 873 1
594 1045 1
594 1069 1
594 1573 1
594 2057 1
594 2953 1
594 3081 1
594 3801 1
595 9 1
595 34 1
595 69 1
595 129 1
595 387 1
595 402 1
595 513 1
595 1201 1
595 1811 1
595 2081 1
595 2758 1
596 83 1
597 1 1
597 6 1
597 9 1
597 41 1
597 165 1
597 269 1
597 641 1
597 841 1
597 1283 1
597 2051 1
597 3204 1
598 289 1
598 770 1
598 2090 1
598 3683 1
599 17 1
599 1539 1
599 3145 1
600 2088 1
601 129 1
601 257 1
601 513 1
601 2725 1
602 653 1
603 129 1
603 130 1
603 549 1
603 1537 1
603 3086 1
604 785 1
605 273 1
605 1036 1
605 1097 1
605 2149 1
605 2436 1
605 2569 1
606 17 1
607 2051 1
607 2121 1
609 3 1
609 4 1
609 5 1
609 6 1
609 37 1
609 73 1
609 91 1
609 101 1
609 111 1
609 129 1
609 130 1
609 132 1
609 193 1
609 285 1
609 514 1
609 531 1
609 551 1
609 578 1
609 801 1
609 1029 1
609 1346 1
609 1542 1
609 2058 1
609 2099 1
609 2106 1
609 2129 1
609 2307 1
609 2309 1
609 2311 1
609 2601 1
609 2625 1
609 3098 1
609 3110 1
609 3117 1
610 1 1
610 17 1
610 27 1
610 129 1
610 131 1
610 133 1
610 142 1
610 262 1
610 515 1
610 545 1
610 641 1
610 1025 1
610 1154 1
610 1441 1
610 2051 1
610 2109 1
610 2125 1
610 2660 1
610 3085 1
610 3205 1
611 1 1
611 11 1
611 34 1
611 38 1
611 130 1
611 281 1
611 529 1
611 1025 1
611 1057 1
611 1107 1
611 1161 1
611 1809 1
611 2049 1
611 2305 1
611 2338 1
611 2629 1
611 3331 1
611 3778 1
612 161 1
612 257 1
613 17 1
613 41 1
613 73 1
613 193 1
613 257 1
613 289 1
613 1025 1
613 1857 1
613 2073 1
613 2626 1
613 3093 1
613 3399 1
614 66 1
614 829 1
614 2129 1
614 3617 1
616 1025 1
616 1155 1
617 1 1
617 3 1
617 57 1
617 65 1
617 131 1
617 169 1
617 194 1
617 289 1
617 325 1
617 387 1
617 541 1
617 577 1
617 1113 1
617 1301 1
617 2081 1
617 2093 1
617 2326 1
617 2690 1
618 4 1
618 69 1
618 261 1
618 1287 1
618 1793 1
618 2065 1
619 9 1
619 274 1
619 516 1
619 1282 1
620 33 1
621 81 1
621 131 1
621 258 1
621 515 1
621 900 1
621 3250 1
622 385 1
624 3137 1
625 2 1
625 10 1
625 19 1
625 51 1
625 67 1
625 130 1
625 146 1
625 257 1
625 307 1
625 809 1
625 1049 1
625 2060 1
625 2561 1
626 1 1
626 332 1
627 49 1
627 129 1
627 137 1
627 177 1
627 261 1
627 449 1
627 2571 1
627 2817 1
628 73 1
629 6 1
629 209 1
629 1025 1
629 2057 1
629 2242 1
630 370 1
630 2489 1
631 2 1
631 3 1
631 300 1
634 81 1
634 809 1
635 1354 1
639 1 1
641 1 1
641 2 1
641 3 1
641 6 1
641 18 1
641 26 1
641 33 1
641 36 1
641 43 1
641 65 1
641 66 1
641 67 1
641 69 1
641 82 1
641 97 1
641 101 1
641 113 1
641 133 1
641 145 1
641 147 1
641 162 1
641 163 1
641 165 1
641 195 1
641 266 1
641 273 1
641 291 1
641 331 1
641 353 1
641 385 1
641 388 1
641 395 1
641 423 1
641 517 1
641 521 1
641 526 1
641 533 1
641 549 1
641 578 1
641 581 1
641 587 1
641 589 1
641 597 1
641 610 1
641 665 1
641 673 1
641 787 1
641 857 1
641 1025 1
641 1026 1
641 1030 1
641 1031 1
641 1033 1
641 1041 1
641 1045 1
641 1053 1
641 1090 1
641 1185 1
641 1281 1
641 1283 1
641 1297 1
641 1368 1
641 1433 1
641 1541 1
641 1544 1
641 1553 1
641 1556 1
641 1558 1
641 1729 1
641 1794 1
641 1817 1
641 2049 1
641 2051 1
641 2081 1
641 2103 1
641 2118 1
641 2125 1
641 2215 1
641 2313 1
641 2337 1
641 2342 1
641 2386 1
641 2389 1
641 2562 1
641 2695 1
641 2797 1
641 3073 1
641 3145 1
641 3205 1
641 3243 1
641 3361 1
641 3465 1
641 3525 1
641 3585 1
641 3589 1
641 3726 1
642 1 1
642 2 1
642 7 1
642 18 1
642 65 1
642 113 1
642 147 1
642 258 1
642 263 1
642 289 1
642 303 1
642 307 1
642 393 1
642 409 1
642 517 1
642 1037 1
642 1046 1
642 1186 1
642 1281 1
642 1295 1
642 1557 1
642 1793 1
642 2051 1
642 2053 1
642 2058 1
642 2116 1
642 2305 1
642 2322 1
642 2513 1
642 2561 1
642 2562 1
642 2580 1
642 3074 1
642 3122 1
642 3233 1
642 3329 1
643 1 1
643 3 1
643 9 1
643 33 1
643 34 1
643 57 1
643 65 1
643 69 1
643 73 1
643 274 1
643 321 1
643 451 1
643 521 1
643 545 1
643 577 1
643 1025 1
643 1187 1
643 1281 1
643 1306 1
643 1345 1
643 2049 1
643 2058 1
643 2062 1
643 2101 1
643 2121 1
643 2141 1
643 2178 1
643 2273 1
643 2313 1
643 2596 1
643 2793 1
643 2921 1
643 3073 1
643 3160 1
643 3201 1
643 3357 1
643 3939 1
644 1 1
644 2 1
644 6 1
644 25 1
644 69 1
644 178 1
644 277 1
644 305 1
644 389 1
645 1 1
645 2 1
645 5 1
645 9 1
645 29 1
645 65 1
645 69 1
645 73 1
645 95 1
645 132 1
645 149 1
645 163 1
645 165 1
645 174 1
645 181 1
645 257 1
645 273 1
645 292 1
645 401 1
645 513 1
645 514 1
645 515 1
645 530 1
645 593 1
645 594 1
645 649 1
645 657 1
645 717 1
645 770 1
645 841 1
645 1029 1
645 1035 1
645 1058 1
645 1073 1
645 1107 1
645 1250 1
645 1283 1
645 1305 1
645 1665 1
645 2049 1
645 2051 1
645 2103 1
645 2179 1
645 2566 1
645 2569 1
645 2632 1
645 3209 1
645 3585 1
645 3593 1
645 3661 1
646 1 1
646 3 1
646 17 1
646 81 1
646 93 1
646 259 1
646 1101 1
646 1537 1
646 2186 1
646 2633 1
646 3137 1
646 3609 1
647 35 1
647 121 1
647 407 1
647 558 1
647 1089 1
647 1281 1
647 1334 1
647 1365 1
647 2051 1
647 2323 1
647 2577 1
647 2843 1
648 21 1
648 73 1
648 259 1
648 577 1
648 1057 1
648 3329 1
649 1 1
649 3 1
649 5 1
649 7 1
649 8 1
649 9 1
649 17 1
649 35 1
649 49 1
649 53 1
649 133 1
649 161 1
649 178 1
649 261 1
649 299 1
649 321 1
649 371 1
649 513 1
649 538 1
649 645 1
649 770 1
649 773 1
649 900 1
649 1025 1
649 1032 1
649 1049 1
649 1165 1
649 1281 1
649 1617 1
649 1666 1
649 2049 1
649 2058 1
649 2090 1
649 2305 1
649 3341 1
650 129 1
650 161 1
650 262 1
650 323 1
650 385 1
650 524 1
650 1041 1
650 1159 1
650 2824 1
651 5 1
651 17 1
651 65 1
651 81 1
651 258 1
651 779 1
651 2049 1
651 2052 1
651 2065 1
651 2310 1
651 2321 1
651 2561 1
651 2562 1
651 3074 1
652 2 1
653 1 1
653 3 1
653 6 1
653 75 1
653 198 1
653 263 1
653 321 1
653 602 1
653 771 1
653 897 1
653 1026 1
653 1035 1
653 3073 1
653 3329 1
654 35 1
654 66 1
654 769 1
654 2194 1
654 3585 1
655 98 1
655 257 1
655 289 1
655 1029 1
656 17 1
657 1 1
657 6 1
657 7 1
657 18 1
657 33 1
657 71 1
657 182 1
657 201 1
657 257 1
657 277 1
657 353 1
657 518 1
657 545 1
657 565 1
657 645 1
657 685 1
657 705 1
657 769 1
657 1122 1
657 1154 1
657 1204 1
657 1283 1
657 2053 1
657 2054 1
657 2117 1
657 2179 1
657 2468 1
657 2561 1
657 2819 1
657 3625 1
657 3969 1
658 1 1
658 6 1
658 9 1
658 262 1
658 268 1
658 291 1
658 517 1
658 809 1
658 1059 1
658 2049 1
658 2051 1
658 2057 1
658 2063 1
658 2697 1
659 1 1
659 5 1
659 49 1
659 129 1
659 230 1
659 257 1
659 1539 1
659 1569 1
659 1685 1
659 1890 1
659 2625 1
660 1 1
660 47 1
660 99 1
660 369 1
660 964 1
660 1545 1
660 2446 1
661 1 1
661 33 1
661 39 1
661 44 1
661 101 1
661 1565 1
661 2049 1
661 2055 1
661 2058 1
661 3394 1
662 787 1
662 1031 1
662 1217 1
663 81 1
663 513 1
664 137 1
665 3 1
665 19 1
665 51 1
665 121 1
665 194 1
665 289 1
665 641 1
665 1042 1
665 1121 1
665 1540 1
665 2081 1
666 114 1
667 37 1
667 65 1
667 205 1
667 1025 1
669 35 1
669 1113 1
673 1 1
673 2 1
673 9 1
673 17 1
673 67 1
673 77 1
673 82 1
673 129 1
673 161 1
673 202 1
673 261 1
673 274 1
673 289 1
673 391 1
673 395 1
673 513 1
673 518 1
673 521 1
673 529 1
673 545 1
673 641 1
673 1025 1
673 1033 1
673 1162 1
673 1223 1
673 1281 1
673 1321 1
673 1345 1
673 1450 1
673 1571 1
673 1589 1
673 1684 1
673 2049 1
673 2052 1
673 2113 1
673 2310 1
673 2454 1
673 2563 1
673 2593 1
673 2629 1
673 3082 1
673 3083 1
673 3173 1
673 3330 1
674 9 1
674 17 1
674 29 1
674 49 1
674 67 1
674 69 1
674 73 1
674 82 1
674 83 1
674 129 1
674 161 1
674 211 1
674 237 1
674 257 1
674 537 1
674 961 1
674 1299 1
674 2059 1
674 2065 1
674 2113 1
674 2129 1
674 2433 1
675 6 1
675 10 1
675 11 1
675 97 1
675 306 1
675 513 1
675 519 1
675 1161 1
675 2133 1
676 10 1
676 523 1
676 581 1
676 2049 1
676 3341 1
677 1 1
677 7 1
677 130 1
677 135 1
677 258 1
677 265 1
677 1185 1
677 1286 1
677 1378 1
677 1929 1
677 2225 1
677 3081 1
677 3585 1
678 162 1
678 1284 1
678 1321 1
679 130 1
679 278 1
679 2305 1
681 1 1
681 9 1
681 21 1
681 56 1
681 65 1
681 277 1
681 291 1
681 522 1
681 547 1
681 580 1
681 1045 1
681 1099 1
681 2449 1
681 2945 1
681 3113 1
682 1 1
682 9 1
682 25 1
682 33 1
682 1025 1
683 2 1
683 129 1
683 497 1
684 1 1
684 545 1
685 1 1
685 81 1
685 529 1
685 657 1
685 1335 1
685 2081 1
686 2 1
686 3 1
686 334 1
686 1025 1
688 2577 1
689 65 1
689 1089 1
689 2854 1
689 3073 1
690 1 1
690 33 1
690 369 1
691 1 1
691 329 1
691 1286 1
691 1314 1
693 353 1
693 2058 1
694 5 1
696 2571 1
696 3107 1
697 133 1
697 1282 1
697 2058 1
697 2355 1
698 102 1
699 13 1
702 2 1
702 517 1
705 3 1
705 4 1
705 5 1
705 11 1
705 16 1
705 18 1
705 37 1
705 39 1
705 47 1
705 59 1
705 68 1
705 74 1
705 129 1
705 165 1
705 257 1
705 313 1
705 525 1
705 529 1
705 531 1
705 657 1
705 778 1
705 818 1
705 1029 1
705 1034 1
705 1055 1
705 1105 1
705 1107 1
705 1331 1
705 1537 1
705 1553 1
705 1993 1
705 2054 1
705 2065 1
705 2089 1
705 2114 1
705 2121 1
705 2242 1
705 2633 1
705 3457 1
706 17 1
706 130 1
706 134 1
706 422 1
706 515 1
706 2117 1
706 3587 1
707 1 1
707 22 1
707 73 1
707 1058 1
707 1153 1
707 1601 1
707 2065 1
707 2081 1
707 2305 1
707 2633 1
707 3335 1
708 37 1
708 578 1
708 2049 1
709 1 1
709 2 1
709 33 1
709 49 1
709 265 1
709 1041 1
709 2051 1
709 2129 1
709 3073 1
709 3097 1
709 3186 1
710 1 1
710 297 1
710 1537 1
710 2306 1
711 2329 1
713 27 1
713 33 1
713 133 1
713 537 1
713 1033 1
713 2053 1
713 2058 1
713 2065 1
713 2249 1
713 2849 1
713 2993 1
714 1347 1
714 1538 1
714 2065 1
714 3106 1
715 2057 1
715 3090 1
715 3689 1
716 3 1
717 645 1
717 769 1
717 1283 1
721 3 1
721 5 1
721 196 1
721 327 1
721 390 1
721 401 1
721 785 1
721 1025 1
721 1029 1
721 1033 1
721 1665 1
721 2434 1
721 2569 1
722 5 1
722 2305 1
722 2628 1
722 3215 1
723 7 1
723 162 1
723 1129 1
723 1285 1
723 2081 1
723 2321 1
725 37 1
725 257 1
725 883 1
725 1793 1
725 2114 1
725 2385 1
725 3649 1
729 513 1
729 1345 1
729 1521 1
729 2081 1
732 177 1
733 513 1
734 1555 1
735 2059 1
737 1 1
737 13 1
737 17 1
737 66 1
737 155 1
737 308 1
737 1025 1
737 2114 1
737 2841 1
737 2945 1
737 3458 1
738 2129 1
739 1578 1
739 2373 1
740 73 1
740 515 1
740 521 1
740 2089 1
741 1 1
741 1441 1
742 3 1
745 14 1
745 82 1
745 537 1
745 782 1
746 1541 1
747 1 1
747 145 1
748 133 1
748 141 1
748 389 1
748 514 1
748 1543 1
748 1921 1
748 3081 1
750 66 1
751 5 1
751 2225 1
752 3329 1
753 257 1
753 385 1
754 771 1
757 21 1
757 257 1
757 2636 1
759 385 1
761 1677 1
761 3086 1
763 1026 1
765 516 1
769 1 1
769 2 1
769 3 1
769 5 1
769 6 1
769 9 1
769 10 1
769 13 1
769 14 1
769 17 1
769 18 1
769 23 1
769 33 1
769 34 1
769 36 1
769 37 1
769 39 1
769 61 1
769 65 1
769 66 1
769 67 1
769 71 1
769 73 1
769 74 1
769 75 1
769 76 1
769 84 1
769 97 1
769 107 1
769 113 1
769 133 1
769 150 1
769 155 1
769 156 1
769 177 1
769 187 1
769 197 1
769 217 1
769 225 1
769 241 1
769 257 1
769 259 1
769 260 1
769 265 1
769 273 1
769 283 1
769 324 1
769 337 1
769 513 1
769 514 1
769 519 1
769 529 1
769 539 1
769 565 1
769 654 1
769 657 1
769 717 1
769 1025 1
769 1029 1
769 1033 1
769 1035 1
769 1043 1
769 1073 1
769 1089 1
769 1090 1
769 1095 1
769 1101 1
769 1169 1
769 1285 1
769 1380 1
769 1537 1
769 1569 1
769 1665 1
769 1793 1
769 1797 1
769 1803 1
769 2049 1
769 2051 1
769 2053 1
769 2057 1
769 2069 1
769 2081 1
769 2083 1
769 2095 1
769 2101 1
769 2113 1
769 2121 1
769 2133 1
769 2157 1
769 2163 1
769 2177 1
769 2178 1
769 2196 1
769 2241 1
769 2244 1
769 2257 1
769 2373 1
769 2401 1
769 2564 1
769 2569 1
769 2756 1
769 2769 1
769 2977 1
769 3032 1
769 3076 1
769 3203 1
769 3433 1
769 3525 1
769 3585 1
769 3841 1
770 1 1
770 2 1
770 3 1
770 6 1
770 7 1
770 9 1
770 18 1
770 27 1
770 33 1
770 49 1
770 66 1
770 77 1
770 139 1
770 329 1
770 388 1
770 515 1
770 577 1
770 593 1
770 598 1
770 645 1
770 649 1
770 1027 1
770 1045 1
770 1064 1
770 1106 1
770 1137 1
770 1169 1
770 1249 1
770 1541 1
770 1650 1
770 1730 1
770 2019 1
770 2049 1
770 2052 1
770 2057 1
770 2065 1
770 2133 1
770 2177 1
770 2562 1
770 2569 1
770 2627 1
770 3073 1
770 3235 1
770 3329 1
770 3954 1
771 1 1
771 2 1
771 15 1
771 17 1
771 24 1
771 37 1
771 38 1
771 41 1
771 65 1
771 67 1
771 81 1
771 97 1
771 103 1
771 129 1
771 217 1
771 257 1
771 260 1
771 327 1
771 397 1
771 465 1
771 513 1
771 653 1
771 754 1
771 1039 1
771 1125 1
771 1153 1
771 1157 1
771 1545 1
771 1921 1
771 2049 1
771 2081 1
771 2082 1
771 2177 1
771 2293 1
771 2306 1
771 2582 1
771 3137 1
771 3155 1
771 3273 1
771 3377 1
771 3842 1
772 1 1
772 41 1
772 129 1
772 299 1
772 517 1
772 2130 1
772 2331 1
773 1 1
773 10 1
773 17 1
773 22 1
773 25 1
773 33 1
773 58 1
773 90 1
773 97 1
773 141 1
773 193 1
773 258 1
773 274 1
773 297 1
773 349 1
773 456 1
773 513 1
773 522 1
773 525 1
773 578 1
773 649 1
773 1025 1
773 1035 1
773 1057 1
773 1169 1
773 1189 1
773 1253 1
773 1281 1
773 1289 1
773 1302 1
773 1315 1
773 1541 1
773 2057 1
773 2082 1
773 2121 1
773 2202 1
773 2241 1
773 2307 1
773 2657 1
774 37 1
774 68 1
774 133 1
774 145 1
774 851 1
774 2051 1
774 2321 1
775 1 1
775 57 1
775 69 1
775 261 1
775 289 1
775 530 1
775 546 1
775 1282 1
775 1409 1
775 2121 1
775 2130 1
775 2209 1
775 2593 1
775 2625 1
775 2737 1
776 33 1
776 81 1
776 408 1
776 1617 1
776 2101 1
777 1 1
777 2 1
777 3 1
777 5 1
777 9 1
777 17 1
777 35 1
777 47 1
777 71 1
777 98 1
777 113 1
777 129 1
777 194 1
777 289 1
777 389 1
777 519 1
777 849 1
777 1058 1
777 1222 1
777 1239 1
777 1555 1
777 1617 1
777 2049 1
777 2051 1
777 2068 1
777 2121 1
777 2177 1
777 2313 1
777 2849 1
777 3117 1
777 3155 1
777 3409 1
777 3521 1
777 3653 1
778 6 1
778 39 1
778 53 1
778 68 1
778 148 1
778 193 1
778 273 1
778 521 1
778 705 1
778 996 1
778 1025 1
778 1041 1
778 2053 1
778 2310 1
779 1 1
779 69 1
779 209 1
779 513 1
779 651 1
779 814 1
779 1033 1
779 1165 1
779 1510 1
779 1811 1
779 2097 1
779 2643 1
779 3429 1
780 1 1
780 257 1
780 449 1
780 1030 1
780 2306 1
780 2436 1
780 2822 1
780 3089 1
781 75 1
781 129 1
781 137 1
781 138 1
781 257 1
781 280 1
781 393 1
781 1026 1
781 1027 1
781 1557 1
781 2053 1
781 2081 1
781 3213 1
782 9 1
782 145 1
782 745 1
782 1121 1
782 1162 1
783 9 1
783 129 1
783 401 1
783 1561 1
785 1 1
785 2 1
785 5 1
785 6 1
785 18 1
785 37 1
785 82 1
785 105 1
785 129 1
785 145 1
785 289 1
785 322 1
785 329 1
785 513 1
785 515 1
785 604 1
785 721 1
785 1025 1
785 1027 1
785 1055 1
785 1067 1
785 1077 1
785 1104 1
785 1166 1
785 1297 1
785 1539 1
785 1794 1
785 2049 1
785 2051 1
785 2053 1
785 2057 1
785 2093 1
785 2215 1
785 2295 1
785 2305 1
785 2435 1
785 3721 1
786 2 1
786 38 1
786 201 1
786 514 1
786 1121 1
786 1285 1
786 2366 1
786 3723 1
787 9 1
787 11 1
787 17 1
787 33 1
787 43 1
787 69 1
787 229 1
787 322 1
787 330 1
787 333 1
787 517 1
787 545 1
787 581 1
787 641 1
787 662 1
787 1161 1
787 1187 1
787 1281 1
787 2217 1
787 2369 1
787 3090 1
788 1 1
788 1161 1
788 2561 1
789 1 1
789 417 1
789 515 1
789 1065 1
789 2049 1
789 2051 1
789 2499 1
789 2579 1
790 313 1
791 2050 1
791 2446 1
791 2818 1
792 1025 1
792 1032 1
792 1121 1
793 143 1
793 259 1
793 953 1
793 1027 1
793 2054 1
793 2221 1
793 3337 1
794 97 1
794 3077 1
795 19 1
795 130 1
795 134 1
795 170 1
795 337 1
795 513 1
796 127 1
796 1350 1
796 2069 1
797 1 1
797 17 1
797 65 1
797 233 1
797 513 1
797 3125 1
798 9 1
798 2693 1
799 387 1
799 580 1
801 2 1
801 33 1
801 65 1
801 73 1
801 78 1
801 97 1
801 141 1
801 145 1
801 163 1
801 194 1
801 195 1
801 248 1
801 271 1
801 289 1
801 516 1
801 585 1
801 609 1
801 1025 1
801 1092 1
801 1153 1
801 1161 1
801 1285 1
801 1317 1
801 1669 1
801 1681 1
801 1827 1
801 2049 1
801 2052 1
801 2113 1
801 2225 1
801 2307 1
801 2309 1
801 2568 1
801 2878 1
801 3202 1
801 3329 1
801 3621 1
801 3689 1
802 3 1
802 6 1
802 169 1
802 199 1
802 545 1
802 589 1
802 1109 1
802 2049 1
802 2057 1
802 2059 1
802 2225 1
802 2329 1
803 1 1
803 21 1
803 113 1
803 129 1
803 133 1
803 149 1
803 261 1
803 1027 1
803 1034 1
803 1158 1
803 2061 1
803 2113 1
803 2697 1
803 3109 1
804 1 1
804 72 1
804 1537 1
804 2052 1
804 2861 1
804 3225 1
805 1 1
805 2 1
805 49 1
805 65 1
805 337 1
805 1061 1
805 1346 1
805 1409 1
805 1577 1
805 1705 1
805 2113 1
805 2195 1
805 2249 1
805 2561 1
806 1 1
806 555 1
806 1089 1
806 1209 1
806 2145 1
807 521 1
808 2049 1
809 25 1
809 129 1
809 513 1
809 514 1
809 625 1
809 634 1
809 658 1
809 2049 1
809 2065 1
809 2095 1
810 1561 1
810 2227 1
811 133 1
811 2074 1
811 3137 1
812 1025 1
813 1 1
813 5 1
813 133 1
813 545 1
813 1025 1
813 1474 1
813 2389 1
814 779 1
814 1249 1
814 2117 1
817 10 1
817 49 1
817 593 1
817 1025 1
817 1033 1
817 1161 1
817 1321 1
817 1729 1
817 2070 1
818 259 1
818 285 1
818 705 1
818 1797 1
818 2053 1
818 2579 1
819 514 1
819 1285 1
820 1025 1
822 1027 1
823 2 1
825 455 1
825 545 1
826 261 1
827 5 1
828 129 1
829 614 1
831 1029 1
833 1 1
833 43 1
833 49 1
833 66 1
833 115 1
833 147 1
833 175 1
833 211 1
833 289 1
833 323 1
833 389 1
833 449 1
833 450 1
833 513 1
833 528 1
833 545 1
833 1025 1
833 1031 1
833 1043 1
833 1218 1
833 1537 1
833 2049 1
833 2057 1
833 2081 1
833 2089 1
833 2145 1
833 2501 1
833 3001 1
833 3073 1
833 3205 1
833 3284 1
833 3585 1
833 3781 1
834 6 1
834 9 1
834 21 1
834 29 1
834 83 1
834 131 1
834 257 1
834 547 1
834 1025 1
834 1365 1
834 2057 1
834 2177 1
834 3089 1
835 385 1
835 405 1
835 513 1
835 1057 1
835 1291 1
835 2049 1
835 2339 1
835 3610 1
836 56 1
836 258 1
836 2577 1
836 3617 1
836 3841 1
837 3 1
837 19 1
837 49 1
837 65 1
837 545 1
837 1025 1
837 1315 1
837 2305 1
837 3078 1
838 353 1
839 5 1
839 257 1
839 547 1
839 1025 1
839 1415 1
839 2305 1
840 33 1
840 2113 1
841 1 1
841 8 1
841 18 1
841 41 1
841 139 1
841 529 1
841 597 1
841 645 1
841 2945 1
842 5 1
842 9 1
842 1153 1
842 2129 1
842 2621 1
843 50 1
843 145 1
845 4 1
845 9 1
845 26 1
845 33 1
845 131 1
845 266 1
845 322 1
845 553 1
845 1203 1
846 7 1
848 1043 1
849 6 1
849 85 1
849 101 1
849 130 1
849 777 1
849 1188 1
849 2081 1
849 2705 1
849 3081 1
849 3082 1
850 9 1
850 19 1
850 97 1
850 1303 1
850 3073 1
851 110 1
851 259 1
851 774 1
851 1089 1
851 3202 1
851 4052 1
852 4 1
853 5 1
853 133 1
854 25 1
854 2049 1
854 2055 1
855 265 1
855 1065 1
857 18 1
857 513 1
857 641 1
857 1041 1
857 1299 1
857 2069 1
857 3345 1
858 65 1
859 6 1
861 98 1
862 105 1
862 2177 1
865 9 1
865 12 1
865 14 1
865 33 1
865 68 1
865 76 1
865 163 1
865 241 1
865 289 1
865 405 1
865 529 1
865 578 1
865 2146 1
866 2 1
866 7 1
866 21 1
867 21 1
867 1537 1
867 2323 1
869 41 1
869 96 1
869 1097 1
871 4 1
871 393 1
872 97 1
873 10 1
873 17 1
873 129 1
873 594 1
873 2086 1
874 65 1
874 1938 1
875 577 1
876 72 1
881 9 1
881 38 1
881 2090 1
881 2209 1
882 3585 1
883 421 1
883 725 1
883 2087 1
884 1 1
885 97 1
885 1090 1
885 2073 1
886 2059 1
887 579 1
891 277 1
891 1569 1
895 3107 1
897 1 1
897 2 1
897 5 1
897 6 1
897 10 1
897 13 1
897 15 1
897 17 1
897 34 1
897 51 1
897 65 1
897 75 1
897 87 1
897 105 1
897 129 1
897 133 1
897 134 1
897 139 1
897 163 1
897 261 1
897 265 1
897 513 1
897 530 1
897 547 1
897 653 1
897 1089 1
897 1091 1
897 1557 1
897 1573 1
897 1636 1
897 2052 1
897 2085 1
897 2114 1
897 2209 1
897 2233 1
897 2337 1
897 3141 1
897 3586 1
897 3865 1
898 129 1
898 213 1
898 281 1
898 283 1
898 1025 1
898 1409 1
898 2049 1
898 2055 1
898 2663 1
898 2962 1
899 1 1
899 17 1
899 21 1
899 22 1
899 65 1
899 66 1
899 297 1
899 1053 1
899 1126 1
899 1537 1
899 2049 1
899 2641 1
899 2823 1
900 27 1
900 130 1
900 267 1
900 621 1
900 649 1
900 1041 1
900 2121 1
901 17 1
901 21 1
901 41 1
901 281 1
901 385 1
901 1025 1
901 2085 1
901 2198 1
901 2458 1
901 3083 1
902 1 1
902 113 1
902 2100 1
904 179 1
904 3073 1
905 2 1
905 19 1
905 21 1
905 193 1
905 409 1
905 1349 1
905 1539 1
905 2325 1
905 3841 1
906 65 1
906 3073 1
907 5 1
907 19 1
907 1347 1
908 2052 1
909 25 1
909 26 1
909 529 1
909 2085 1
909 2694 1
911 19 1
912 2065 1
913 25 1
913 67 1
913 133 1
913 525 1
913 1077 1
913 1355 1
913 1501 1
913 3074 1
914 129 1
914 593 1
915 141 1
915 148 1
916 33 1
916 293 1
917 19 1
918 3457 1
919 130 1
919 2433 1
921 1025 1
921 1041 1
921 2102 1
921 3009 1
923 1605 1
923 3157 1
925 105 1
926 169 1
926 1029 1
929 9 1
929 22 1
929 65 1
929 68 1
929 261 1
929 553 1
929 1027 1
929 1053 1
929 1153 1
929 1298 1
929 1566 1
929 1590 1
929 1617 1
929 2077 1
929 3073 1
930 1423 1
931 1 1
931 4 1
931 133 1
931 1282 1
933 1 1
933 3 1
933 255 1
933 521 1
936 264 1
938 35 1
938 523 1
938 2563 1
939 1105 1
939 2097 1
940 57 1
945 65 1
945 153 1
945 1164 1
945 1409 1
946 5 1
947 83 1
947 579 1
949 258 1
949 1032 1
953 793 1
955 33 1
955 3077 1
961 1 1
961 6 1
961 17 1
961 37 1
961 57 1
961 197 1
961 531 1
961 674 1
961 1596 1
961 2595 1
961 2657 1
961 3587 1
962 9 1
962 19 1
962 21 1
962 69 1
962 74 1
962 1028 1
962 1541 1
962 3207 1
963 1 1
963 387 1
963 2344 1
963 3091 1
964 660 1
965 1 1
965 82 1
965 143 1
965 2435 1
967 9 1
967 1365 1
967 1667 1
969 9 1
969 24 1
969 389 1
969 515 1
969 529 1
969 1042 1
969 2070 1
970 1538 1
971 593 1
973 3 1
973 545 1
977 389 1
977 1034 1
977 1217 1
977 2278 1
978 153 1
978 257 1
979 18 1
981 145 1
981 193 1
982 1073 1
985 1 1
985 3081 1
987 420 1
993 5 1
993 84 1
993 133 1
993 513 1
993 1025 1
993 1281 1
993 1289 1
995 2437 1
996 778 1
998 1298 1
1000 141 1
1001 5 1
1002 1794 1
1003 1443 1
1009 1175 1
1025 1 1
1025 2 1
1025 3 1
1025 4 1
1025 5 1
1025 7 1
1025 10 1
1025 12 1
1025 13 1
1025 17 1
1025 18 1
1025 19 1
1025 20 1
1025 21 1
1025 22 1
1025 25 1
1025 28 1
1025 29 1
1025 30 1
1025 33 1
1025 34 1
1025 35 1
1025 36 1
1025 37 1
1025 41 1
1025 42 1
1025 48 1
1025 49 1
1025 50 1
1025 57 1
1025 59 1
1025 65 1
1025 66 1
1025 67 1
1025 68 1
1025 69 1
1025 70 1
1025 73 1
1025 77 1
1025 81 1
1025 97 1
1025 98 1
1025 113 1
1025 114 1
1025 117 1
1025 127 1
1025 129 1
1025 130 1
1025 131 1
1025 133 1
1025 139 1
1025 143 1
1025 149 1
1025 150 1
1025 154 1
1025 161 1
1025 163 1
1025 166 1
1025 167 1
1025 177 1
1025 178 1
1025 193 1
1025 194 1
1025 203 1
1025 206 1
1025 257 1
1025 258 1
1025 260 1
1025 261 1
1025 263 1
1025 264 1
1025 265 1
1025 267 1
1025 268 1
1025 269 1
1025 270 1
1025 273 1
1025 274 1
1025 275 1
1025 282 1
1025 290 1
1025 292 1
1025 293 1
1025 297 1
1025 313 1
1025 321 1
1025 322 1
1025 323 1
1025 325 1
1025 329 1
1025 333 1
1025 337 1
1025 340 1
1025 341 1
1025 350 1
1025 354 1
1025 359 1
1025 385 1
1025 397 1
1025 418 1
1025 434 1
1025 450 1
1025 513 1
1025 514 1
1025 517 1
1025 518 1
1025 525 1
1025 529 1
1025 530 1
1025 531 1
1025 532 1
1025 533 1
1025 545 1
1025 550 1
1025 564 1
1025 578 1
1025 579 1
1025 581 1
1025 610 1
1025 611 1
1025 613 1
1025 616 1
1025 629 1
1025 641 1
1025 643 1
1025 649 1
1025 667 1
1025 673 1
1025 682 1
1025 686 1
1025 721 1
1025 737 1
1025 769 1
1025 773 1
1025 778 1
1025 785 1
1025 792 1
1025 801 1
1025 812 1
1025 813 1
1025 817 1
1025 820 1
1025 833 1
1025 834 1
1025 837 1
1025 839 1
1025 898 1
1025 901 1
1025 921 1
1025 993 1
1025 1029 1
1025 1031 1
1025 1033 1
1025 1041 1
1025 1050 1
1025 1057 1
1025 1065 1
1025 1079 1
1025 1092 1
1025 1093 1
1025 1127 1
1025 1130 1
1025 1136 1
1025 1153 1
1025 1154 1
1025 1155 1
1025 1161 1
1025 1165 1
1025 1174 1
1025 1281 1
1025 1282 1
1025 1287 1
1025 1305 1
1025 1313 1
1025 1345 1
1025 1346 1
1025 1413 1
1025 1441 1
1025 1481 1
1025 1546 1
1025 1555 1
1025 1573 1
1025 1601 1
1025 1611 1
1025 1621 1
1025 1692 1
1025 1793 1
1025 1799 1
1025 1801 1
1025 1809 1
1025 1826 1
1025 2049 1
1025 2050 1
1025 2053 1
1025 2055 1
1025 2057 1
1025 2058 1
1025 2063 1
1025 2064 1
1025 2065 1
1025 2067 1
1025 2075 1
1025 2082 1
1025 2087 1
1025 2098 1
1025 2107 1
1025 2113 1
1025 2115 1
1025 2117 1
1025 2121 1
1025 2123 1
1025 2145 1
1025 2177 1
1025 2178 1
1025 2181 1
1025 2186 1
1025 2193 1
1025 2196 1
1025 2198 1
1025 2200 1
1025 2213 1
1025 2214 1
1025 2237 1
1025 2277 1
1025 2307 1
1025 2309 1
1025 2310 1
1025 2313 1
1025 2317 1
1025 2337 1
1025 2338 1
1025 2341 1
1025 2357 1
1025 2370 1
1025 2374 1
1025 2433 1
1025 2434 1
1025 2435 1
1025 2437 1
1025 2465 1
1025 2561 1
1025 2562 1
1025 2565 1
1025 2577 1
1025 2593 1
1025 2602 1
1025 2611 1
1025 2636 1
1025 2649 1
1025 2707 1
1025 2818 1
1025 2823 1
1025 2841 1
1025 2897 1
1025 2917 1
1025 3073 1
1025 3074 1
1025 3076 1
1025 3093 1
1025 3106 1
1025 3142 1
1025 3153 1
1025 3401 1
1025 3411 1
1025 3585 1
1025 3590 1
1025 3601 1
1025 3713 1
1025 3757 1
1025 3873 1
1026 1 1
1026 2 1
1026 3 1
1026 5 1
1026 13 1
1026 17 1
1026 18 1
1026 19 1
1026 21 1
1026 23 1
1026 28 1
1026 34 1
1026 35 1
1026 36 1
1026 37 1
1026 41 1
1026 49 1
1026 51 1
1026 55 1
1026 65 1
1026 69 1
1026 76 1
1026 80 1
1026 87 1
1026 89 1
1026 101 1
1026 129 1
1026 130 1
1026 138 1
1026 151 1
1026 161 1
1026 193 1
1026 213 1
1026 243 1
1026 257 1
1026 261 1
1026 270 1
1026 283 1
1026 285 1
1026 325 1
1026 386 1
1026 391 1
1026 409 1
1026 451 1
1026 513 1
1026 517 1
1026 530 1
1026 533 1
1026 537 1
1026 545 1
1026 577 1
1026 581 1
1026 583 1
1026 641 1
1026 653 1
1026 763 1
1026 781 1
1026 1057 1
1026 1076 1
1026 1089 1
1026 1105 1
1026 1145 1
1026 1217 1
1026 1545 1
1026 1571 1
1026 1585 1
1026 1922 1
1026 2049 1
1026 2053 1
1026 2065 1
1026 2067 1
1026 2093 1
1026 2138 1
1026 2139 1
1026 2177 1
1026 2194 1
1026 2217 1
1026 2305 1
1026 2593 1
1026 2689 1
1026 2948 1
1026 3111 1
1026 3619 1
1027 1 1
1027 3 1
1027 4 1
1027 6 1
1027 7 1
1027 9 1
1027 17 1
1027 27 1
1027 33 1
1027 34 1
1027 35 1
1027 41 1
1027 53 1
1027 65 1
1027 66 1
1027 73 1
1027 76 1
1027 97 1
1027 103 1
1027 105 1
1027 106 1
1027 117 1
1027 129 1
1027 130 1
1027 137 1
1027 149 1
1027 153 1
1027 162 1
1027 173 1
1027 178 1
1027 223 1
1027 257 1
1027 258 1
1027 261 1
1027 265 1
1027 273 1
1027 300 1
1027 343 1
1027 354 1
1027 358 1
1027 385 1
1027 417 1
1027 450 1
1027 469 1
1027 513 1
1027 514 1
1027 515 1
1027 521 1
1027 523 1
1027 526 1
1027 533 1
1027 547 1
1027 770 1
1027 781 1
1027 785 1
1027 793 1
1027 803 1
1027 822 1
1027 929 1
1027 1035 1
1027 1044 1
1027 1059 1
1027 1076 1
1027 1089 1
1027 1093 1
1027 1113 1
1027 1167 1
1027 1218 1
1027 1254 1
1027 1347 1
1027 1348 1
1027 1393 1
1027 1443 1
1027 1449 1
1027 1557 1
1027 1603 1
1027 1733 1
1027 2049 1
1027 2051 1
1027 2053 1
1027 2057 1
1027 2065 1
1027 2066 1
1027 2081 1
1027 2086 1
1027 2124 1
1027 2125 1
1027 2130 1
1027 2137 1
1027 2177 1
1027 2197 1
1027 2214 1
1027 2277 1
1027 2373 1
1027 2389 1
1027 2425 1
1027 2563 1
1027 2565 1
1027 2573 1
1027 2643 1
1027 2821 1
1027 2949 1
1027 3085 1
1027 3113 1
1027 3157 1
1027 3210 1
1027 3338 1
1027 3393 1
1027 3713 1
1028 9 1
1028 37 1
1028 45 1
1028 57 1
1028 74 1
1028 137 1
1028 161 1
1028 173 1
1028 202 1
1028 218 1
1028 257 1
1028 259 1
1028 547 1
1028 549 1
1028 962 1
1028 1037 1
1028 1053 1
1028 1176 1
1028 1234 1
1028 1642 1
1028 2066 1
1028 2211 1
1028 2305 1
1028 2530 1
1028 2829 1
1028 2947 1
1028 3719 1
1029 1 1
1029 2 1
1029 3 1
1029 4 1
1029 6 1
1029 10 1
1029 11 1
1029 12 1
1029 17 1
1029 18 1
1029 19 1
1029 27 1
1029 29 1
1029 33 1
1029 41 1
1029 65 1
1029 67 1
1029 69 1
1029 73 1
1029 116 1
1029 139 1
1029 198 1
1029 201 1
1029 205 1
1029 225 1
1029 257 1
1029 258 1
1029 259 1
1029 261 1
1029 273 1
1029 289 1
1029 307 1
1029 346 1
1029 387 1
1029 389 1
1029 397 1
1029 405 1
1029 417 1
1029 513 1
1029 533 1
1029 553 1
1029 571 1
1029 577 1
1029 609 1
1029 645 1
1029 655 1
1029 705 1
1029 721 1
1029 769 1
1029 831 1
1029 926 1
1029 1025 1
1029 1045 1
1029 1059 1
1029 1105 1
1029 1153 1
1029 1237 1
1029 1313 1
1029 1314 1
1029 1411 1
1029 1473 1
1029 1537 1
1029 1697 1
1029 1803 1
1029 2049 1
1029 2050 1
1029 2055 1
1029 2061 1
1029 2065 1
1029 2070 1
1029 2081 1
1029 2082 1
1029 2084 1
1029 2145 1
1029 2177 1
1029 2178 1
1029 2189 1
1029 2197 1
1029 2324 1
1029 2377 1
1029 2434 1
1029 2437 1
1029 2571 1
1029 2577 1
1029 2602 1
1029 2767 1
1029 2819 1
1029 2833 1
1029 2891 1
1029 3073 1
1029 3105 1
1029 3137 1
1029 3853 1
1030 1 1
1030 7 1
1030 25 1
1030 33 1
1030 34 1
1030 195 1
1030 257 1
1030 263 1
1030 311 1
1030 333 1
1030 337 1
1030 641 1
1030 780 1
1030 1048 1
1030 1101 1
1030 1153 1
1030 1409 1
1030 1541 1
1030 1571 1
1030 2055 1
1030 2061 1
1030 2094 1
1030 2113 1
1030 2306 1
1030 2308 1
1030 2369 1
1030 2385 1
1030 3009 1
1030 3081 1
1030 3087 1
1030 3409 1
1031 3 1
1031 4 1
1031 10 1
1031 14 1
1031 69 1
1031 73 1
1031 105 1
1031 121 1
1031 131 1
1031 145 1
1031 194 1
1031 265 1
1031 393 1
1031 410 1
1031 513 1
1031 641 1
1031 662 1
1031 833 1
1031 1025 1
1031 1105 1
1031 1218 1
1031 1667 1
1031 2051 1
1031 2053 1
1031 2081 1
1031 2123 1
1031 2142 1
1031 2166 1
1031 2180 1
1031 2242 1
1031 2324 1
1031 2325 1
1031 2443 1
1031 2562 1
1031 2563 1
1031 2565 1
1031 2577 1
1031 2865 1
1032 1 1
1032 3 1
1032 18 1
1032 65 1
1032 67 1
1032 73 1
1032 134 1
1032 401 1
1032 649 1
1032 792 1
1032 949 1
1032 1166 1
1032 2050 1
1032 2145 1
1033 1 1
1033 2 1
1033 3 1
1033 4 1
1033 5 1
1033 7 1
1033 12 1
1033 17 1
1033 19 1
1033 22 1
1033 25 1
1033 26 1
1033 34 1
1033 37 1
1033 56 1
1033 65 1
1033 66 1
1033 67 1
1033 69 1
1033 73 1
1033 74 1
1033 101 1
1033 145 1
1033 161 1
1033 170 1
1033 209 1
1033 210 1
1033 225 1
1033 239 1
1033 252 1
1033 259 1
1033 293 1
1033 305 1
1033 321 1
1033 322 1
1033 353 1
1033 453 1
1033 514 1
1033 522 1
1033 535 1
1033 545 1
1033 553 1
1033 561 1
1033 587 1
1033 641 1
1033 673 1
1033 713 1
1033 721 1
1033 769 1
1033 779 1
1033 817 1
1033 1025 1
1033 1082 1
1033 1090 1
1033 1153 1
1033 1157 1
1033 1161 1
1033 1171 1
1033 1172 1
1033 1346 1
1033 1349 1
1033 1546 1
1033 1585 1
1033 1649 1
1033 1679 1
1033 1794 1
1033 2057 1
1033 2065 1
1033 2072 1
1033 2081 1
1033 2083 1
1033 2091 1
1033 2109 1
1033 2321 1
1033 2327 1
1033 2369 1
1033 2373 1
1033 2445 1
1033 2565 1
1033 2603 1
1033 2681 1
1033 2725 1
1033 2829 1
1033 2913 1
1033 2952 1
1033 3075 1
1033 3079 1
1033 3217 1
1033 3267 1
1033 3345 1
1033 3818 1
1034 2 1
1034 9 1
1034 65 1
1034 75 1
1034 97 1
1034 109 1
1034 162 1
1034 193 1
1034 261 1
1034 513 1
1034 517 1
1034 529 1
1034 537 1
1034 577 1
1034 578 1
1034 579 1
1034 705 1
1034 803 1
1034 977 1
1034 1043 1
1034 1106 1
1034 1252 1
1034 1567 1
1034 1793 1
1034 1905 1
1034 2059 1
1034 2085 1
1034 2121 1
1034 2179 1
1034 2306 1
1034 2337 1
1034 2377 1
1034 2436 1
1034 2461 1
1034 2593 1
1034 2825 1
1035 1 1
1035 2 1
1035 7 1
1035 17 1
1035 19 1
1035 21 1
1035 33 1
1035 37 1
1035 43 1
1035 73 1
1035 77 1
1035 97 1
1035 129 1
1035 131 1
1035 262 1
1035 322 1
1035 493 1
1035 561 1
1035 577 1
1035 645 1
1035 653 1
1035 769 1
1035 773 1
1035 1027 1
1035 1127 1
1035 1155 1
1035 1314 1
1035 1603 1
1035 1605 1
1035 2067 1
1035 2082 1
1035 2121 1
1035 2434 1
1035 3137 1
1035 3287 1
1036 1 1
1036 65 1
1036 605 1
1036 1121 1
1036 1326 1
1036 1355 1
1037 6 1
1037 13 1
1037 17 1
1037 25 1
1037 49 1
1037 67 1
1037 82 1
1037 97 1
1037 105 1
1037 163 1
1037 186 1
1037 209 1
1037 221 1
1037 257 1
1037 259 1
1037 261 1
1037 321 1
1037 481 1
1037 513 1
1037 523 1
1037 525 1
1037 531 1
1037 577 1
1037 642 1
1037 1028 1
1037 1043 1
1037 1053 1
1037 1075 1
1037 1153 1
1037 1281 1
1037 2049 1
1037 2073 1
1037 2113 1
1037 2114 1
1037 2145 1
1037 2275 1
1037 2309 1
1037 2322 1
1037 2625 1
1037 2865 1
1037 3333 1
1037 3845 1
1038 257 1
1038 435 1
1038 513 1
1038 1045 1
1038 3073 1
1039 65 1
1039 523 1
1039 543 1
1039 771 1
1039 1164 1
1039 1281 1
1039 1547 1
1039 2084 1
1039 2085 1
1039 2088 1
1039 2763 1
1039 3105 1
1039 3969 1
1040 346 1
1040 2205 1
1040 3206 1
1041 1 1
1041 2 1
1041 3 1
1041 4 1
1041 5 1
1041 9 1
1041 16 1
1041 17 1
1041 19 1
1041 20 1
1041 21 1
1041 25 1
1041 26 1
1041 33 1
1041 37 1
1041 41 1
1041 65 1
1041 66 1
1041 67 1
1041 77 1
1041 97 1
1041 106 1
1041 119 1
1041 129 1
1041 134 1
1041 137 1
1041 140 1
1041 147 1
1041 150 1
1041 151 1
1041 195 1
1041 196 1
1041 227 1
1041 257 1
1041 258 1
1041 265 1
1041 267 1
1041 293 1
1041 297 1
1041 301 1
1041 310 1
1041 322 1
1041 386 1
1041 411 1
1041 419 1
1041 449 1
1041 513 1
1041 514 1
1041 521 1
1041 523 1
1041 527 1
1041 531 1
1041 577 1
1041 585 1
1041 586 1
1041 641 1
1041 650 1
1041 709 1
1041 778 1
1041 857 1
1041 900 1
1041 921 1
1041 1025 1
1041 1043 1
1041 1049 1
1041 1050 1
1041 1066 1
1041 1127 1
1041 1177 1
1041 1217 1
1041 1297 1
1041 1553 1
1041 1565 1
1041 1675 1
1041 1793 1
1041 1795 1
1041 1826 1
1041 1827 1
1041 1932 1
1041 2005 1
1041 2049 1
1041 2051 1
1041 2055 1
1041 2057 1
1041 2061 1
1041 2066 1
1041 2081 1
1041 2082 1
1041 2107 1
1041 2133 1
1041 2307 1
1041 2311 1
1041 2321 1
1041 2325 1
1041 2337 1
1041 2425 1
1041 2565 1
1041 2625 1
1041 2642 1
1041 2817 1
1041 2945 1
1041 3073 1
1041 3078 1
1041 3085 1
1041 3109 1
1041 3137 1
1041 3145 1
1041 3282 1
1041 3597 1
1042 1 1
1042 3 1
1042 5 1
1042 9 1
1042 33 1
1042 53 1
1042 65 1
1042 73 1
1042 130 1
1042 131 1
1042 161 1
1042 174 1
1042 195 1
1042 450 1
1042 521 1
1042 534 1
1042 539 1
1042 665 1
1042 969 1
1042 1048 1
1042 1057 1
1042 1090 1
1042 1217 1
1042 1283 1
1042 1287 1
1042 1415 1
1042 1793 1
1042 2058 1
1042 2061 1
1042 2069 1
1042 2081 1
1042 2085 1
1042 2177 1
1042 3113 1
1042 3972 1
1043 1 1
1043 5 1
1043 6 1
1043 17 1
1043 22 1
1043 26 1
1043 37 1
1043 54 1
1043 65 1
1043 91 1
1043 139 1
1043 145 1
1043 181 1
1043 257 1
1043 271 1
1043 272 1
1043 274 1
1043 388 1
1043 519 1
1043 524 1
1043 769 1
1043 833 1
1043 848 1
1043 1034 1
1043 1037 1
1043 1041 1
1043 1058 1
1043 1059 1
1043 1067 1
1043 1153 1
1043 1177 1
1043 1641 1
1043 1797 1
1043 2049 1
1043 2117 1
1043 2196 1
1043 2250 1
1043 3173 1
1043 3334 1
1043 3470 1
1044 25 1
1044 42 1
1044 54 1
1044 97 1
1044 105 1
1044 522 1
1044 1027 1
1044 2057 1
1044 2337 1
1044 2561 1
1044 2857 1
1045 1 1
1045 2 1
1045 5 1
1045 10 1
1045 17 1
1045 26 1
1045 69 1
1045 107 1
1045 135 1
1045 273 1
1045 297 1
1045 361 1
1045 466 1
1045 517 1
1045 518 1
1045 521 1
1045 529 1
1045 537 1
1045 580 1
1045 585 1
1045 594 1
1045 641 1
1045 681 1
1045 770 1
1045 1029 1
1045 1038 1
1045 1297 1
1045 1541 1
1045 1705 1
1045 2050 1
1045 2058 1
1045 2059 1
1045 2075 1
1045 2091 1
1045 2177 1
1045 3106 1
1045 3235 1
1045 3345 1
1046 33 1
1046 97 1
1046 325 1
1046 513 1
1046 514 1
1046 642 1
1046 1449 1
1046 2097 1
1046 2210 1
1046 2594 1
1047 1 1
1047 2 1
1047 41 1
1047 43 1
1047 50 1
1047 181 1
1047 257 1
1047 517 1
1047 1089 1
1047 1313 1
1047 1617 1
1047 2129 1
1047 2401 1
1047 2689 1
1048 29 1
1048 97 1
1048 531 1
1048 1030 1
1048 1042 1
1049 1 1
1049 11 1
1049 17 1
1049 59 1
1049 77 1
1049 129 1
1049 143 1
1049 161 1
1049 201 1
1049 226 1
1049 298 1
1049 309 1
1049 394 1
1049 399 1
1049 465 1
1049 515 1
1049 525 1
1049 625 1
1049 649 1
1049 1041 1
1049 1347 1
1049 1827 1
1049 1834 1
1049 1923 1
1049 2053 1
1049 2059 1
1049 2067 1
1049 2089 1
1049 2113 1
1049 2856 1
1049 3079 1
1049 3141 1
1049 3457 1
1049 3585 1
1050 9 1
1050 11 1
1050 165 1
1050 225 1
1050 593 1
1050 1025 1
1050 1041 1
1050 2081 1
1050 2273 1
1050 2306 1
1050 2321 1
1050 2565 1
1050 2577 1
1050 2610 1
1050 3217 1
1051 1 1
1051 22 1
1051 35 1
1051 65 1
1051 67 1
1051 167 1
1051 515 1
1051 3465 1
1051 3905 1
1052 1301 1
1053 6 1
1053 99 1
1053 257 1
1053 310 1
1053 420 1
1053 521 1
1053 641 1
1053 899 1
1053 929 1
1053 1028 1
1053 1037 1
1053 1089 1
1053 1555 1
1053 2051 1
1053 2057 1
1053 2113 1
1053 2209 1
1053 2241 1
1053 2580 1
1053 2677 1
1054 65 1
1054 1345 1
1054 2113 1
1055 69 1
1055 705 1
1055 785 1
1055 1573 1
1055 2050 1
1055 2065 1
1055 2097 1
1056 1 1
1057 1 1
1057 2 1
1057 3 1
1057 4 1
1057 5 1
1057 7 1
1057 9 1
1057 10 1
1057 11 1
1057 16 1
1057 17 1
1057 19 1
1057 24 1
1057 25 1
1057 33 1
1057 37 1
1057 45 1
1057 65 1
1057 69 1
1057 81 1
1057 99 1
1057 114 1
1057 129 1
1057 130 1
1057 133 1
1057 161 1
1057 169 1
1057 170 1
1057 173 1
1057 206 1
1057 262 1
1057 263 1
1057 265 1
1057 273 1
1057 274 1
1057 319 1
1057 324 1
1057 329 1
1057 389 1
1057 454 1
1057 471 1
1057 485 1
1057 513 1
1057 516 1
1057 517 1
1057 529 1
1057 533 1
1057 545 1
1057 611 1
1057 648 1
1057 773 1
1057 835 1
1057 1025 1
1057 1026 1
1057 1042 1
1057 1073 1
1057 1105 1
1057 1155 1
1057 1197 1
1057 1298 1
1057 1349 1
1057 1411 1
1057 1425 1
1057 1478 1
1057 1537 1
1057 1539 1
1057 1549 1
1057 1585 1
1057 1603 1
1057 1921 1
1057 2049 1
1057 2053 1
1057 2055 1
1057 2066 1
1057 2081 1
1057 2082 1
1057 2084 1
1057 2113 1
1057 2177 1
1057 2305 1
1057 2310 1
1057 2373 1
1057 2499 1
1057 2561 1
1057 2569 1
1057 2657 1
1057 2673 1
1057 2705 1
1057 3073 1
1057 3075 1
1057 3113 1
1057 3141 1
1057 3151 1
1057 3169 1
1057 3637 1
1057 3886 1
1058 1 1
1058 5 1
1058 9 1
1058 19 1
1058 22 1
1058 33 1
1058 38 1
1058 39 1
1058 49 1
1058 50 1
1058 129 1
1058 130 1
1058 131 1
1058 289 1
1058 513 1
1058 586 1
1058 645 1
1058 707 1
1058 777 1
1058 1043 1
1058 1097 1
1058 1283 1
1058 1293 1
1058 1378 1
1058 2051 1
1058 2081 1
1058 2178 1
1058 2313 1
1058 2447 1
1058 2630 1
1058 2858 1
1058 3107 1
1058 3218 1
1058 3658 1
1058 3713 1
1059 18 1
1059 27 1
1059 29 1
1059 33 1
1059 49 1
1059 81 1
1059 141 1
1059 195 1
1059 203 1
1059 210 1
1059 325 1
1059 370 1
1059 398 1
1059 433 1
1059 522 1
1059 551 1
1059 658 1
1059 1027 1
1059 1029 1
1059 1043 1
1059 1099 1
1059 1170 1
1059 1289 1
1059 1297 1
1059 1539 1
1059 2049 1
1059 2061 1
1059 2065 1
1059 2069 1
1059 2081 1
1059 2097 1
1059 2698 1
1059 2723 1
1059 3873 1
1060 1 1
1060 9 1
1060 122 1
1060 129 1
1060 150 1
1060 445 1
1060 517 1
1060 593 1
1060 1153 1
1060 1553 1
1060 2127 1
1060 2165 1
1060 3295 1
1061 1 1
1061 9 1
1061 12 1
1061 13 1
1061 17 1
1061 33 1
1061 35 1
1061 67 1
1061 69 1
1061 77 1
1061 145 1
1061 154 1
1061 257 1
1061 259 1
1061 261 1
1061 353 1
1061 401 1
1061 518 1
1061 529 1
1061 530 1
1061 805 1
1061 2049 1
1061 2050 1
1061 2053 1
1061 2057 1
1061 2083 1
1061 2124 1
1061 2467 1
1061 2601 1
1061 3078 1
1061 3209 1
1061 3585 1
1062 1 1
1062 17 1
1062 19 1
1062 37 1
1062 261 1
1062 273 1
1062 274 1
1062 521 1
1062 2129 1
1062 2194 1
1062 2433 1
1063 2 1
1063 18 1
1063 31 1
1063 33 1
1063 130 1
1063 156 1
1063 323 1
1063 2177 1
1063 2629 1
1064 9 1
1064 17 1
1064 161 1
1064 291 1
1064 513 1
1064 770 1
1064 2307 1
1064 2691 1
1064 2947 1
1065 1 1
1065 10 1
1065 23 1
1065 33 1
1065 81 1
1065 87 1
1065 101 1
1065 131 1
1065 210 1
1065 273 1
1065 485 1
1065 517 1
1065 577 1
1065 579 1
1065 789 1
1065 855 1
1065 1025 1
1065 1154 1
1065 1357 1
1065 1566 1
1065 2049 1
1065 2051 1
1065 2053 1
1065 2063 1
1065 2177 1
1065 2181 1
1065 2385 1
1065 3077 1
1065 3089 1
1065 3099 1
1065 3593 1
1066 82 1
1066 133 1
1066 385 1
1066 1041 1
1066 1079 1
1066 1298 1
1066 2121 1
1066 2593 1
1067 2 1
1067 9 1
1067 19 1
1067 155 1
1067 321 1
1067 515 1
1067 533 1
1067 577 1
1067 785 1
1067 1043 1
1067 1186 1
1067 1306 1
1067 1345 1
1067 1359 1
1067 1569 1
1067 1857 1
1067 2130 1
1067 2325 1
1067 3073 1
1068 1 1
1068 2821 1
1069 1 1
1069 7 1
1069 35 1
1069 131 1
1069 135 1
1069 161 1
1069 594 1
1069 1294 1
1069 1810 1
1069 2593 1
1069 2594 1
1069 3137 1
1070 2625 1
1071 2361 1
1072 1 1
1072 170 1
1072 579 1
1073 1 1
1073 29 1
1073 34 1
1073 41 1
1073 195 1
1073 257 1
1073 262 1
1073 267 1
1073 273 1
1073 301 1
1073 322 1
1073 519 1
1073 533 1
1073 549 1
1073 579 1
1073 582 1
1073 645 1
1073 769 1
1073 982 1
1073 1057 1
1073 1306 1
1073 1539 1
1073 1602 1
1073 2049 1
1073 2051 1
1073 2081 1
1073 2113 1
1073 2120 1
1073 2178 1
1073 2245 1
1073 2315 1
1073 2499 1
1073 2861 1
1073 3125 1
1074 1 1
1074 35 1
1074 52 1
1074 69 1
1074 105 1
1074 521 1
1074 545 1
1074 554 1
1074 1569 1
1074 2177 1
1075 1 1
1075 2 1
1075 85 1
1075 265 1
1075 266 1
1075 327 1
1075 1037 1
1075 1237 1
1075 1545 1
1075 3329 1
1076 137 1
1076 146 1
1076 585 1
1076 1026 1
1076 1027 1
1076 3211 1
1076 3345 1
1077 25 1
1077 33 1
1077 57 1
1077 133 1
1077 145 1
1077 193 1
1077 281 1
1077 289 1
1077 520 1
1077 785 1
1077 913 1
1077 1345 1
1077 1601 1
1077 2097 1
1077 2562 1
1077 3148 1
1079 17 1
1079 257 1
1079 405 1
1079 1025 1
1079 1066 1
1079 3074 1
1080 514 1
1081 33 1
1081 66 1
1081 148 1
1081 1345 1
1081 1673 1
1081 2129 1
1081 2434 1
1081 3171 1
1082 1 1
1082 9 1
1082 1033 1
1082 1387 1
1083 19 1
1083 21 1
1083 33 1
1083 548 1
1084 73 1
1085 1 1
1085 11 1
1085 2066 1
1088 385 1
1089 1 1
1089 2 1
1089 3 1
1089 5 1
1089 12 1
1089 13 1
1089 17 1
1089 21 1
1089 23 1
1089 37 1
1089 41 1
1089 45 1
1089 66 1
1089 70 1
1089 82 1
1089 123 1
1089 129 1
1089 130 1
1089 131 1
1089 133 1
1089 145 1
1089 146 1
1089 157 1
1089 161 1
1089 169 1
1089 177 1
1089 193 1
1089 201 1
1089 257 1
1089 265 1
1089 273 1
1089 284 1
1089 289 1
1089 297 1
1089 310 1
1089 325 1
1089 329 1
1089 343 1
1089 451 1
1089 513 1
1089 545 1
1089 547 1
1089 577 1
1089 579 1
1089 647 1
1089 689 1
1089 769 1
1089 806 1
1089 851 1
1089 897 1
1089 1026 1
1089 1027 1
1089 1047 1
1089 1053 1
1089 1122 1
1089 1157 1
1089 1174 1
1089 1181 1
1089 1250 1
1089 1282 1
1089 1290 1
1089 1547 1
1089 1577 1
1089 1578 1
1089 1581 1
1089 1618 1
1089 1925 1
1089 2049 1
1089 2051 1
1089 2057 1
1089 2058 1
1089 2066 1
1089 2080 1
1089 2089 1
1089 2094 1
1089 2114 1
1089 2120 1
1089 2137 1
1089 2177 1
1089 2181 1
1089 2369 1
1089 2467 1
1089 2577 1
1089 2593 1
1089 2645 1
1089 2739 1
1089 2825 1
1089 2837 1
1089 3073 1
1089 3078 1
1089 3113 1
1089 3141 1
1089 3237 1
1089 3361 1
1089 3794 1
1089 3841 1
1090 1 1
1090 2 1
1090 3 1
1090 10 1
1090 17 1
1090 27 1
1090 34 1
1090 134 1
1090 179 1
1090 201 1
1090 257 1
1090 259 1
1090 275 1
1090 289 1
1090 291 1
1090 521 1
1090 529 1
1090 553 1
1090 641 1
1090 769 1
1090 885 1
1090 1033 1
1090 1042 1
1090 1547 1
1090 2049 1
1090 2055 1
1090 2093 1
1090 2114 1
1090 2115 1
1090 2273 1
1090 2353 1
1090 2641 1
1090 2753 1
1090 3329 1
1090 3880 1
1091 1 1
1091 2 1
1091 4 1
1091 5 1
1091 9 1
1091 17 1
1091 22 1
1091 33 1
1091 45 1
1091 515 1
1091 897 1
1091 1249 1
1091 1537 1
1091 1541 1
1091 1552 1
1091 1699 1
1091 2065 1
1091 2083 1
1091 2098 1
1091 2177 1
1091 2306 1
1091 2714 1
1091 2913 1
1091 3363 1
1092 130 1
1092 257 1
1092 289 1
1092 323 1
1092 553 1
1092 579 1
1092 801 1
1092 1025 1
1092 1281 1
1092 2053 1
1092 2241 1
1093 1 1
1093 7 1
1093 17 1
1093 21 1
1093 29 1
1093 34 1
1093 41 1
1093 71 1
1093 98 1
1093 137 1
1093 289 1
1093 309 1
1093 321 1
1093 365 1
1093 426 1
1093 514 1
1093 523 1
1093 547 1
1093 556 1
1093 1025 1
1093 1027 1
1093 1362 1
1093 2049 1
1093 2050 1
1093 2055 1
1093 2057 1
1093 2069 1
1093 2083 1
1093 2100 1
1093 2241 1
1093 2340 1
1093 2465 1
1093 2625 1
1093 2694 1
1093 2753 1
1093 2821 1
1094 5 1
1094 56 1
1094 73 1
1094 513 1
1094 1539 1
1094 3585 1
1095 1 1
1095 197 1
1095 307 1
1095 769 1
1095 2082 1
1095 2083 1
1095 3083 1
1096 4 1
1096 521 1
1096 533 1
1096 1673 1
1097 1 1
1097 9 1
1097 20 1
1097 21 1
1097 35 1
1097 37 1
1097 55 1
1097 77 1
1097 114 1
1097 129 1
1097 145 1
1097 205 1
1097 257 1
1097 269 1
1097 341 1
1097 530 1
1097 581 1
1097 605 1
1097 869 1
1097 1058 1
1097 1154 1
1097 1174 1
1097 1541 1
1097 1716 1
1097 2065 1
1097 2068 1
1097 2097 1
1097 2340 1
1098 9 1
1098 33 1
1098 89 1
1098 162 1
1098 265 1
1098 535 1
1098 561 1
1098 2051 1
1098 2129 1
1098 2179 1
1098 2323 1
1098 3077 1
1098 3393 1
1099 1 1
1099 2 1
1099 14 1
1099 22 1
1099 25 1
1099 81 1
1099 307 1
1099 441 1
1099 558 1
1099 681 1
1099 1059 1
1099 1157 1
1099 1637 1
1099 2056 1
1099 2069 1
1099 2189 1
1099 2714 1
1099 3329 1
1100 37 1
1100 81 1
1100 2069 1
1100 2097 1
1100 2309 1
1100 2837 1
1100 2845 1
1101 4 1
1101 385 1
1101 387 1
1101 646 1
1101 769 1
1101 1030 1
1101 1171 1
1101 2052 1
1101 2085 1
1101 2260 1
1101 2449 1
1101 2451 1
1102 1 1
1102 289 1
1103 153 1
1103 513 1
1103 2066 1
1104 785 1
1104 3633 1
1105 1 1
1105 11 1
1105 17 1
1105 30 1
1105 33 1
1105 113 1
1105 123 1
1105 129 1
1105 130 1
1105 131 1
1105 145 1
1105 226 1
1105 257 1
1105 269 1
1105 292 1
1105 301 1
1105 323 1
1105 393 1
1105 457 1
1105 513 1
1105 555 1
1105 705 1
1105 939 1
1105 1026 1
1105 1029 1
1105 1031 1
1105 1057 1
1105 1730 1
1105 2057 1
1105 2113 1
1105 2187 1
1105 2247 1
1105 2345 1
1105 2577 1
1105 3139 1
1105 3330 1
1106 65 1
1106 387 1
1106 513 1
1106 521 1
1106 529 1
1106 770 1
1106 1034 1
1106 1537 1
1106 2055 1
1106 2076 1
1106 2177 1
1106 3594 1
1107 6 1
1107 277 1
1107 521 1
1107 611 1
1107 645 1
1107 705 1
1107 1665 1
1107 2073 1
1107 2085 1
1108 19 1
1108 33 1
1108 202 1
1108 585 1
1108 2049 1
1108 2641 1
1109 1 1
1109 2 1
1109 33 1
1109 129 1
1109 225 1
1109 467 1
1109 585 1
1109 802 1
1109 2061 1
1109 2117 1
1110 229 1
1110 2131 1
1110 2406 1
1111 9 1
1111 538 1
1111 2049 1
1113 50 1
1113 258 1
1113 617 1
1113 669 1
1113 1027 1
1113 2067 1
1113 2177 1
1113 2325 1
1114 2 1
1114 2181 1
1115 257 1
1115 513 1
1115 1121 1
1115 1538 1
1115 2561 1
1116 577 1
1117 1 1
1117 42 1
1117 161 1
1117 273 1
1121 1 1
1121 2 1
1121 9 1
1121 65 1
1121 73 1
1121 311 1
1121 326 1
1121 545 1
1121 665 1
1121 782 1
1121 786 1
1121 792 1
1121 1036 1
1121 1115 1
1121 1169 1
1121 1387 1
1121 2049 1
1121 2058 1
1121 2178 1
1121 2213 1
1121 2437 1
1121 2572 1
1121 2611 1
1121 3541 1
1121 3978 1
1121 3985 1
1122 11 1
1122 14 1
1122 135 1
1122 290 1
1122 513 1
1122 519 1
1122 523 1
1122 577 1
1122 589 1
1122 657 1
1122 1089 1
1122 1547 1
1122 2049 1
1122 2337 1
1122 2385 1
1122 2834 1
1122 3081 1
1123 1 1
1123 2 1
1123 5 1
1123 17 1
1123 259 1
1123 521 1
1123 579 1
1123 587 1
1123 1169 1
1123 1281 1
1123 2241 1
1123 3217 1
1123 3859 1
1124 9 1
1124 15 1
1125 3 1
1125 19 1
1125 131 1
1125 265 1
1125 306 1
1125 387 1
1125 515 1
1125 520 1
1125 771 1
1125 1265 1
1125 2060 1
1125 2117 1
1125 2585 1
1125 3722 1
1126 271 1
1126 285 1
1126 899 1
1126 1429 1
1126 2623 1
1126 3585 1
1127 1025 1
1127 1035 1
1127 1041 1
1128 27 1
1129 1 1
1129 161 1
1129 273 1
1129 723 1
1129 1156 1
1129 1542 1
1129 1576 1
1129 1813 1
1129 2338 1
1129 2405 1
1129 3521 1
1130 46 1
1130 517 1
1130 1025 1
1130 2113 1
1131 2 1
1131 2131 1
1133 1283 1
1133 2209 1
1134 2183 1
1135 1 1
1135 17 1
1135 257 1
1136 1025 1
1137 77 1
1137 86 1
1137 133 1
1137 147 1
1137 770 1
1137 1161 1
1137 1162 1
1137 2306 1
1137 2321 1
1138 2201 1
1139 36 1
1139 241 1
1139 559 1
1140 2049 1
1141 3 1
1141 11 1
1141 13 1
1141 513 1
1141 2069 1
1141 2577 1
1142 11 1
1142 2171 1
1143 97 1
1143 131 1
1143 1859 1
1145 27 1
1145 257 1
1145 1026 1
1145 2181 1
1146 1 1
1146 531 1
1153 1 1
1153 2 1
1153 4 1
1153 8 1
1153 9 1
1153 12 1
1153 15 1
1153 17 1
1153 19 1
1153 21 1
1153 23 1
1153 33 1
1153 34 1
1153 35 1
1153 36 1
1153 39 1
1153 43 1
1153 45 1
1153 65 1
1153 67 1
1153 100 1
1153 105 1
1153 130 1
1153 132 1
1153 137 1
1153 139 1
1153 147 1
1153 153 1
1153 170 1
1153 193 1
1153 194 1
1153 195 1
1153 259 1
1153 265 1
1153 273 1
1153 287 1
1153 294 1
1153 327 1
1153 329 1
1153 385 1
1153 393 1
1153 417 1
1153 449 1
1153 513 1
1153 514 1
1153 521 1
1153 531 1
1153 539 1
1153 554 1
1153 583 1
1153 707 1
1153 771 1
1153 801 1
1153 842 1
1153 929 1
1153 1025 1
1153 1029 1
1153 1030 1
1153 1033 1
1153 1037 1
1153 1043 1
1153 1060 1
1153 1231 1
1153 1538 1
1153 1539 1
1153 1698 1
1153 1729 1
1153 2050 1
1153 2052 1
1153 2053 1
1153 2054 1
1153 2057 1
1153 2059 1
1153 2065 1
1153 2081 1
1153 2087 1
1153 2113 1
1153 2129 1
1153 2153 1
1153 2186 1
1153 2193 1
1153 2215 1
1153 2561 1
1153 2563 1
1153 2569 1
1153 2641 1
1153 2693 1
1153 2818 1
1153 3137 1
1153 3139 1
1153 3401 1
1153 3587 1
1153 3761 1
1154 2 1
1154 3 1
1154 10 1
1154 13 1
1154 17 1
1154 33 1
1154 41 1
1154 49 1
1154 127 1
1154 129 1
1154 145 1
1154 195 1
1154 209 1
1154 273 1
1154 277 1
1154 326 1
1154 513 1
1154 517 1
1154 610 1
1154 657 1
1154 1025 1
1154 1065 1
1154 1097 1
1154 1297 1
1154 1485 1
1154 1889 1
1154 1929 1
1154 2065 1
1154 2081 1
1154 2305 1
1154 2370 1
1154 2579 1
1154 3274 1
1155 1 1
1155 2 1
1155 4 1
1155 9 1
1155 10 1
1155 13 1
1155 25 1
1155 33 1
1155 52 1
1155 162 1
1155 257 1
1155 261 1
1155 273 1
1155 274 1
1155 305 1
1155 393 1
1155 517 1
1155 527 1
1155 545 1
1155 593 1
1155 616 1
1155 1025 1
1155 1035 1
1155 1057 1
1155 1334 1
1155 1673 1
1155 1809 1
1155 2065 1
1155 2178 1
1155 2181 1
1155 2630 1
1155 3103 1
1155 3394 1
1156 2 1
1156 19 1
1156 41 1
1156 69 1
1156 71 1
1156 303 1
1156 345 1
1156 515 1
1156 521 1
1156 537 1
1156 1129 1
1156 1287 1
1156 1537 1
1156 1671 1
1156 1857 1
1156 2049 1
1156 2053 1
1156 2057 1
1156 2305 1
1156 2577 1
1156 2593 1
1156 2769 1
1157 1 1
1157 3 1
1157 5 1
1157 7 1
1157 9 1
1157 13 1
1157 19 1
1157 41 1
1157 65 1
1157 129 1
1157 131 1
1157 139 1
1157 153 1
1157 155 1
1157 247 1
1157 261 1
1157 265 1
1157 513 1
1157 517 1
1157 771 1
1157 1033 1
1157 1089 1
1157 1099 1
1157 1537 1
1157 1864 1
1157 2051 1
1157 2056 1
1157 2076 1
1157 2087 1
1157 2225 1
1157 2321 1
1157 2338 1
1157 2344 1
1157 2611 1
1157 2819 1
1157 2833 1
1157 2846 1
1158 1 1
1158 34 1
1158 145 1
1158 201 1
1158 273 1
1158 290 1
1158 457 1
1158 803 1
1158 1617 1
1158 2073 1
1159 1 1
1159 5 1
1159 33 1
1159 513 1
1159 546 1
1159 650 1
1159 2097 1
1159 2177 1
1159 2306 1
1159 2387 1
1159 3846 1
1160 37 1
1160 257 1
1160 1281 1
1160 1411 1
1160 3445 1
1161 1 1
1161 29 1
1161 35 1
1161 41 1
1161 52 1
1161 73 1
1161 115 1
1161 130 1
1161 131 1
1161 194 1
1161 257 1
1161 258 1
1161 322 1
1161 521 1
1161 551 1
1161 557 1
1161 611 1
1161 675 1
1161 787 1
1161 788 1
1161 801 1
1161 817 1
1161 1025 1
1161 1033 1
1161 1137 1
1161 1333 1
1161 1445 1
1161 1541 1
1161 2049 1
1161 2113 1
1161 2117 1
1161 2145 1
1161 2157 1
1161 2315 1
1161 2354 1
1161 2822 1
1161 3163 1
1161 3683 1
1162 3 1
1162 34 1
1162 49 1
1162 59 1
1162 79 1
1162 89 1
1162 129 1
1162 259 1
1162 673 1
1162 782 1
1162 1137 1
1162 1282 1
1162 1329 1
1162 2050 1
1162 2561 1
1163 1 1
1163 5 1
1163 41 1
1163 225 1
1163 520 1
1163 1283 1
1163 2458 1
1164 105 1
1164 157 1
1164 945 1
1164 1039 1
1164 2053 1
1164 2100 1
1164 3077 1
1165 3 1
1165 18 1
1165 261 1
1165 562 1
1165 649 1
1165 779 1
1165 1025 1
1165 2115 1
1165 2147 1
1165 2379 1
1165 2601 1
1166 3 1
1166 257 1
1166 785 1
1166 1032 1
1166 1545 1
1167 129 1
1167 1027 1
1167 1173 1
1168 2817 1
1169 1 1
1169 2 1
1169 3 1
1169 5 1
1169 17 1
1169 65 1
1169 67 1
1169 129 1
1169 146 1
1169 162 1
1169 209 1
1169 236 1
1169 257 1
1169 258 1
1169 262 1
1169 265 1
1169 271 1
1169 275 1
1169 325 1
1169 514 1
1169 518 1
1169 521 1
1169 525 1
1169 547 1
1169 554 1
1169 570 1
1169 769 1
1169 770 1
1169 773 1
1169 1121 1
1169 1123 1
1169 1596 1
1169 1611 1
1169 1725 1
1169 2052 1
1169 2081 1
1169 2083 1
1169 2181 1
1169 2186 1
1169 2245 1
1169 2439 1
1169 2657 1
1169 2822 1
1169 3075 1
1170 1 1
1170 11 1
1170 65 1
1170 266 1
1170 513 1
1170 1059 1
1170 1281 1
1170 2177 1
1170 2337 1
1170 2609 1
1170 3137 1
1170 3841 1
1170 3848 1
1171 33 1
1171 262 1
1171 513 1
1171 577 1
1171 579 1
1171 1033 1
1171 1101 1
1171 2249 1
1171 2312 1
1172 1033 1
1173 2 1
1173 51 1
1173 101 1
1173 387 1
1173 521 1
1173 1167 1
1173 2061 1
1173 2375 1
1173 2441 1
1174 133 1
1174 577 1
1174 1025 1
1174 1089 1
1174 1097 1
1175 7 1
1175 208 1
1175 257 1
1175 1009 1
1175 2561 1
1175 3363 1
1176 258 1
1176 1028 1
1176 2065 1
1177 1 1
1177 257 1
1177 273 1
1177 513 1
1177 577 1
1177 1041 1
1177 1043 1
1177 1537 1
1177 2114 1
1177 2849 1
1177 3169 1
1178 131 1
1178 1251 1
1179 57 1
1179 77 1
1179 1793 1
1179 2117 1
1179 2659 1
1181 266 1
1181 358 1
1181 1089 1
1181 2149 1
1183 81 1
1183 1553 1
1183 2377 1
1185 1 1
1185 3 1
1185 17 1
1185 22 1
1185 50 1
1185 51 1
1185 97 1
1185 98 1
1185 137 1
1185 201 1
1185 210 1
1185 303 1
1185 324 1
1185 497 1
1185 528 1
1185 577 1
1185 641 1
1185 677 1
1185 1285 1
1185 1297 1
1185 2081 1
1185 2120 1
1185 2401 1
1185 2433 1
1185 2441 1
1185 2690 1
1185 2849 1
1185 3193 1
1185 3363 1
1185 3617 1
1186 3 1
1186 9 1
1186 13 1
1186 38 1
1186 101 1
1186 513 1
1186 537 1
1186 642 1
1186 1067 1
1186 1537 1
1186 1601 1
1186 2178 1
1186 2281 1
1186 2307 1
1186 3147 1
1187 10 1
1187 33 1
1187 65 1
1187 257 1
1187 577 1
1187 643 1
1187 787 1
1187 1387 1
1187 2195 1
1187 2381 1
1187 2758 1
1188 849 1
1188 3209 1
1189 129 1
1189 231 1
1189 264 1
1189 375 1
1189 403 1
1189 513 1
1189 773 1
1189 2225 1
1190 5 1
1190 35 1
1190 282 1
1190 2057 1
1191 19 1
1191 99 1
1191 257 1
1191 2562 1
1192 1 1
1192 2 1
1192 545 1
1193 34 1
1193 130 1
1193 258 1
1193 421 1
1193 425 1
1193 1793 1
1193 2049 1
1193 2053 1
1194 69 1
1194 1537 1
1194 3210 1
1195 175 1
1195 385 1
1195 2113 1
1196 5 1
1196 9 1
1196 2113 1
1197 1057 1
1199 131 1
1199 2210 1
1201 55 1
1201 66 1
1201 79 1
1201 194 1
1201 259 1
1201 527 1
1201 595 1
1201 2049 1
1201 2061 1
1201 3393 1
1202 97 1
1202 265 1
1202 2049 1
1202 2051 1
1203 10 1
1203 845 1
1203 1265 1
1203 2177 1
1203 2321 1
1204 1 1
1204 521 1
1204 657 1
1204 2835 1
1205 9 1
1205 513 1
1206 66 1
1206 329 1
1207 274 1
1209 20 1
1209 75 1
1209 806 1
1210 513 1
1210 3207 1
1213 3 1
1217 1 1
1217 2 1
1217 3 1
1217 9 1
1217 19 1
1217 129 1
1217 162 1
1217 257 1
1217 275 1
1217 517 1
1217 548 1
1217 549 1
1217 662 1
1217 977 1
1217 1026 1
1217 1041 1
1217 1042 1
1217 1281 1
1217 1538 1
1217 2069 1
1217 2204 1
1217 2305 1
1217 2321 1
1217 2323 1
1217 2761 1
1217 2948 1
1217 3587 1
1218 9 1
1218 42 1
1218 53 1
1218 385 1
1218 833 1
1218 1027 1
1218 1031 1
1218 1221 1
1218 1539 1
1218 2131 1
1218 2197 1
1218 2641 1
1219 34 1
1219 67 1
1219 439 1
1219 529 1
1219 2049 1
1220 13 1
1220 259 1
1220 577 1
1221 9 1
1221 11 1
1221 265 1
1221 364 1
1221 370 1
1221 1218 1
1221 1294 1
1221 2333 1
1221 2625 1
1222 4 1
1222 777 1
1222 1354 1
1222 1555 1
1222 1561 1
1222 2323 1
1223 17 1
1223 33 1
1223 137 1
1223 257 1
1223 389 1
1223 673 1
1223 2079 1
1224 3073 1
1225 13 1
1225 17 1
1225 105 1
1225 137 1
1225 257 1
1225 321 1
1225 1282 1
1225 3173 1
1226 257 1
1226 265 1
1226 357 1
1226 2250 1
1226 3519 1
1227 1 1
1227 17 1
1227 131 1
1228 580 1
1228 2305 1
1228 3073 1
1229 1 1
1229 2068 1
1230 39 1
1230 195 1
1230 302 1
1231 1153 1
1232 1 1
1233 11 1
1233 19 1
1233 97 1
1233 257 1
1233 339 1
1233 518 1
1233 538 1
1233 550 1
1233 2062 1
1233 2067 1
1233 2186 1
1233 2561 1
1234 17 1
1234 129 1
1234 514 1
1234 1028 1
1235 34 1
1235 209 1
1236 3 1
1236 401 1
1237 133 1
1237 1029 1
1237 1075 1
1237 2181 1
1237 2387 1
1239 265 1
1239 777 1
1239 2239 1
1241 33 1
1241 162 1
1241 385 1
1241 2162 1
1242 5 1
1242 387 1
1243 257 1
1244 39 1
1245 33 1
1249 6 1
1249 129 1
1249 258 1
1249 386 1
1249 411 1
1249 514 1
1249 770 1
1249 814 1
1249 1091 1
1249 3457 1
1249 3602 1
1250 273 1
1250 645 1
1250 1089 1
1251 65 1
1251 513 1
1251 1178 1
1251 2177 1
1251 2584 1
1252 25 1
1252 1034 1
1253 513 1
1253 773 1
1254 329 1
1254 1027 1
1257 8 1
1257 17 1
1257 69 1
1257 132 1
1258 2311 1
1265 49 1
1265 57 1
1265 513 1
1265 1125 1
1265 1203 1
1265 2205 1
1266 4 1
1266 138 1
1269 2433 1
1271 259 1
1277 257 1
1281 1 1
1281 4 1
1281 7 1
1281 9 1
1281 11 1
1281 13 1
1281 18 1
1281 21 1
1281 22 1
1281 25 1
1281 28 1
1281 33 1
1281 35 1
1281 37 1
1281 38 1
1281 49 1
1281 65 1
1281 72 1
1281 73 1
1281 81 1
1281 97 1
1281 105 1
1281 113 1
1281 129 1
1281 133 1
1281 134 1
1281 137 1
1281 147 1
1281 153 1
1281 161 1
1281 165 1
1281 168 1
1281 178 1
1281 201 1
1281 219 1
1281 261 1
1281 283 1
1281 289 1
1281 290 1
1281 294 1
1281 321 1
1281 355 1
1281 452 1
1281 457 1
1281 514 1
1281 515 1
1281 529 1
1281 533 1
1281 536 1
1281 539 1
1281 545 1
1281 555 1
1281 577 1
1281 579 1
1281 585 1
1281 641 1
1281 642 1
1281 643 1
1281 647 1
1281 649 1
1281 673 1
1281 773 1
1281 787 1
1281 993 1
1281 1025 1
1281 1037 1
1281 1039 1
1281 1092 1
1281 1123 1
1281 1160 1
1281 1170 1
1281 1217 1
1281 1297 1
1281 1345 1
1281 1378 1
1281 1411 1
1281 1590 1
1281 1678 1
1281 1813 1
1281 2049 1
1281 2051 1
1281 2058 1
1281 2059 1
1281 2065 1
1281 2069 1
1281 2081 1
1281 2099 1
1281 2112 1
1281 2121 1
1281 2129 1
1281 2165 1
1281 2243 1
1281 2273 1
1281 2305 1
1281 2321 1
1281 2341 1
1281 2387 1
1281 2581 1
1281 2593 1
1281 2689 1
1281 2697 1
1281 2726 1
1281 2745 1
1281 3075 1
1281 3169 1
1281 3217 1
1281 3242 1
1282 1 1
1282 2 1
1282 3 1
1282 5 1
1282 9 1
1282 18 1
1282 25 1
1282 69 1
1282 73 1
1282 131 1
1282 143 1
1282 181 1
1282 193 1
1282 243 1
1282 262 1
1282 317 1
1282 337 1
1282 338 1
1282 405 1
1282 453 1
1282 521 1
1282 581 1
1282 619 1
1282 697 1
1282 775 1
1282 931 1
1282 1025 1
1282 1089 1
1282 1162 1
1282 1225 1
1282 1652 1
1282 1921 1
1282 2049 1
1282 2055 1
1282 2253 1
1282 2257 1
1282 2306 1
1282 2417 1
1282 2441 1
1282 2753 1
1282 3107 1
1282 3331 1
1283 1 1
1283 3 1
1283 5 1
1283 9 1
1283 10 1
1283 14 1
1283 17 1
1283 42 1
1283 49 1
1283 68 1
1283 83 1
1283 97 1
1283 131 1
1283 135 1
1283 137 1
1283 138 1
1283 161 1
1283 259 1
1283 298 1
1283 349 1
1283 389 1
1283 513 1
1283 546 1
1283 597 1
1283 641 1
1283 645 1
1283 657 1
1283 717 1
1283 1042 1
1283 1058 1
1283 1133 1
1283 1163 1
1283 1658 1
1283 2082 1
1283 2105 1
1283 2107 1
1283 2153 1
1283 2211 1
1283 2213 1
1283 2243 1
1283 2329 1
1283 2595 1
1283 3211 1
1283 3273 1
1284 1 1
1284 5 1
1284 65 1
1284 142 1
1284 385 1
1284 513 1
1284 583 1
1284 678 1
1284 1291 1
1285 7 1
1285 10 1
1285 13 1
1285 19 1
1285 36 1
1285 50 1
1285 65 1
1285 100 1
1285 197 1
1285 209 1
1285 239 1
1285 545 1
1285 554 1
1285 589 1
1285 723 1
1285 769 1
1285 786 1
1285 801 1
1285 819 1
1285 1185 1
1285 1301 1
1285 1348 1
1285 1618 1
1285 1669 1
1285 2049 1
1285 2069 1
1285 2081 1
1285 2113 1
1285 2201 1
1285 2627 1
1285 2650 1
1286 3 1
1286 6 1
1286 33 1
1286 81 1
1286 91 1
1286 97 1
1286 531 1
1286 582 1
1286 677 1
1286 691 1
1286 2307 1
1286 3585 1
1287 1 1
1287 3 1
1287 35 1
1287 169 1
1287 258 1
1287 290 1
1287 321 1
1287 618 1
1287 1025 1
1287 1042 1
1287 1156 1
1287 1353 1
1287 2049 1
1287 2369 1
1287 2625 1
1288 147 1
1288 3073 1
1288 3241 1
1289 1 1
1289 3 1
1289 5 1
1289 10 1
1289 23 1
1289 37 1
1289 69 1
1289 77 1
1289 132 1
1289 260 1
1289 273 1
1289 389 1
1289 513 1
1289 521 1
1289 529 1
1289 531 1
1289 545 1
1289 773 1
1289 993 1
1289 1059 1
1289 1694 1
1289 2141 1
1289 2145 1
1289 2209 1
1289 2306 1
1289 2310 1
1289 3089 1
1289 3090 1
1289 3209 1
1290 1 1
1290 5 1
1290 7 1
1290 21 1
1290 67 1
1290 131 1
1290 1089 1
1290 1317 1
1290 2145 1
1290 2322 1
1291 1 1
1291 2 1
1291 37 1
1291 129 1
1291 545 1
1291 835 1
1291 1284 1
1291 2049 1
1291 2181 1
1291 3345 1
1292 1 1
1292 2121 1
1292 3091 1
1293 57 1
1293 68 1
1293 81 1
1293 138 1
1293 145 1
1293 257 1
1293 259 1
1293 359 1
1293 1058 1
1293 2059 1
1293 2079 1
1294 17 1
1294 1069 1
1294 1221 1
1294 1697 1
1295 30 1
1295 642 1
1295 2049 1
1296 1 1
1296 81 1
1297 1 1
1297 2 1
1297 15 1
1297 33 1
1297 66 1
1297 78 1
1297 81 1
1297 119 1
1297 129 1
1297 195 1
1297 221 1
1297 257 1
1297 272 1
1297 291 1
1297 323 1
1297 465 1
1297 641 1
1297 785 1
1297 1041 1
1297 1045 1
1297 1059 1
1297 1154 1
1297 1185 1
1297 1281 1
1297 1439 1
1297 2073 1
1297 2135 1
1297 2161 1
1297 2190 1
1297 2305 1
1297 2697 1
1297 3073 1
1297 3101 1
1297 3153 1
1297 3589 1
1298 1 1
1298 22 1
1298 65 1
1298 105 1
1298 129 1
1298 137 1
1298 153 1
1298 389 1
1298 579 1
1298 929 1
1298 998 1
1298 1057 1
1298 1066 1
1298 1985 1
1299 1 1
1299 3 1
1299 265 1
1299 674 1
1299 857 1
1299 1537 1
1300 65 1
1300 3073 1
1301 81 1
1301 129 1
1301 130 1
1301 520 1
1301 617 1
1301 1052 1
1301 1285 1
1301 1411 1
1301 1537 1
1301 2049 1
1301 3073 1
1302 773 1
1302 1554 1
1302 2081 1
1302 2306 1
1302 3371 1
1303 1 1
1303 2 1
1303 850 1
1303 1687 1
1303 3653 1
1304 561 1
1304 2073 1
1305 1 1
1305 18 1
1305 129 1
1305 205 1
1305 279 1
1305 573 1
1305 645 1
1305 1025 1
1305 1320 1
1305 2049 1
1305 2849 1
1306 1 1
1306 201 1
1306 643 1
1306 1067 1
1306 1073 1
1306 2213 1
1307 1 1
1307 33 1
1307 393 1
1308 2198 1
1310 81 1
1311 2053 1
1313 1 1
1313 6 1
1313 17 1
1313 70 1
1313 73 1
1313 90 1
1313 93 1
1313 161 1
1313 194 1
1313 260 1
1313 289 1
1313 385 1
1313 433 1
1313 481 1
1313 1025 1
1313 1029 1
1313 1047 1
1313 1349 1
1313 1862 1
1313 2052 1
1313 2061 1
1313 2065 1
1313 2087 1
1313 2113 1
1313 2115 1
1313 2209 1
1313 2565 1
1313 2570 1
1313 2689 1
1313 2921 1
1313 3091 1
1313 3945 1
1314 1 1
1314 3 1
1314 137 1
1314 173 1
1314 210 1
1314 261 1
1314 523 1
1314 691 1
1314 1029 1
1314 1035 1
1314 2049 1
1314 2050 1
1314 2079 1
1314 2834 1
1315 3 1
1315 6 1
1315 35 1
1315 157 1
1315 235 1
1315 581 1
1315 773 1
1315 837 1
1315 1555 1
1315 1558 1
1316 25 1
1316 89 1
1316 139 1
1316 513 1
1316 2514 1
1317 1 1
1317 3 1
1317 81 1
1317 193 1
1317 197 1
1317 257 1
1317 393 1
1317 801 1
1317 1290 1
1317 2185 1
1318 73 1
1318 2054 1
1318 2081 1
1319 577 1
1319 1539 1
1319 2729 1
1320 1305 1
1321 15 1
1321 115 1
1321 150 1
1321 521 1
1321 545 1
1321 561 1
1321 673 1
1321 678 1
1321 817 1
1321 2100 1
1321 2178 1
1321 3081 1
1321 3237 1
1322 1 1
1322 5 1
1322 2049 1
1322 2195 1
1323 45 1
1323 98 1
1323 1546 1
1325 17 1
1325 130 1
1325 257 1
1325 529 1
1326 1036 1
1327 1 1
1329 27 1
1329 65 1
1329 153 1
1329 193 1
1329 257 1
1329 405 1
1329 561 1
1329 1162 1
1329 1645 1
1329 2050 1
1329 2058 1
1329 2249 1
1329 2390 1
1329 2561 1
1329 2595 1
1330 9 1
1330 43 1
1330 513 1
1330 2059 1
1330 2161 1
1330 3086 1
1331 99 1
1331 705 1
1331 1570 1
1331 1601 1
1331 2113 1
1333 117 1
1333 1161 1
1333 2314 1
1334 647 1
1334 1155 1
1335 6 1
1335 19 1
1335 685 1
1337 385 1
1337 2951 1
1338 2309 1
1338 3125 1
1339 2053 1
1340 273 1
1345 1 1
1345 2 1
1345 3 1
1345 7 1
1345 25 1
1345 67 1
1345 113 1
1345 116 1
1345 184 1
1345 258 1
1345 261 1
1345 277 1
1345 466 1
1345 513 1
1345 549 1
1345 643 1
1345 673 1
1345 729 1
1345 1025 1
1345 1054 1
1345 1067 1
1345 1077 1
1345 1081 1
1345 1281 1
1345 1421 1
1345 1443 1
1345 1542 1
1345 2053 1
1345 2055 1
1345 2095 1
1345 2129 1
1345 2215 1
1345 2308 1
1345 2321 1
1345 2561 1
1345 2563 1
1345 2853 1
1345 3186 1
1346 1 1
1346 4 1
1346 34 1
1346 49 1
1346 114 1
1346 269 1
1346 609 1
1346 805 1
1346 1025 1
1346 1033 1
1346 1537 1
1346 1553 1
1346 1938 1
1346 2087 1
1346 2121 1
1347 1 1
1347 3 1
1347 34 1
1347 137 1
1347 557 1
1347 714 1
1347 907 1
1347 1027 1
1347 1049 1
1347 2089 1
1347 2194 1
1347 2369 1
1347 2571 1
1347 3079 1
1348 81 1
1348 266 1
1348 1027 1
1348 1285 1
1348 1923 1
1348 2629 1
1348 3169 1
1349 13 1
1349 203 1
1349 905 1
1349 1033 1
1349 1057 1
1349 1313 1
1349 3105 1
1349 3201 1
1350 131 1
1350 139 1
1350 796 1
1350 2060 1
1350 2561 1
1351 33 1
1351 165 1
1351 195 1
1351 355 1
1351 1821 1
1352 2711 1
1353 1 1
1353 2 1
1353 145 1
1353 1287 1
1353 1601 1
1353 2051 1
1353 2074 1
1353 2149 1
1353 3605 1
1354 635 1
1354 1222 1
1354 2581 1
1354 2610 1
1355 12 1
1355 585 1
1355 913 1
1355 1036 1
1355 2100 1
1357 1065 1
1357 2277 1
1359 33 1
1359 161 1
1359 1067 1
1361 1 1
1361 131 1
1361 149 1
1361 298 1
1361 385 1
1361 515 1
1361 1733 1
1361 2049 1
1362 153 1
1362 235 1
1362 585 1
1362 1093 1
1363 3 1
1363 164 1
1364 2609 1
1365 9 1
1365 647 1
1365 834 1
1365 967 1
1366 1 1
1366 2561 1
1368 641 1
1369 99 1
1370 7 1
1371 3113 1
1373 273 1
1377 1 1
1377 7 1
1377 9 1
1377 13 1
1377 17 1
1377 19 1
1377 27 1
1377 138 1
1377 257 1
1377 258 1
1377 513 1
1377 581 1
1377 3153 1
1378 5 1
1378 41 1
1378 132 1
1378 515 1
1378 577 1
1378 677 1
1378 1058 1
1378 1281 1
1379 387 1
1379 513 1
1380 769 1
1381 129 1
1383 65 1
1385 201 1
1385 555 1
1385 2183 1
1387 18 1
1387 1082 1
1387 1121 1
1387 1187 1
1388 1426 1
1390 97 1
1393 1027 1
1393 2372 1
1395 11 1
1398 1537 1
1401 2313 1
1402 193 1
1409 3 1
1409 5 1
1409 9 1
1409 10 1
1409 26 1
1409 37 1
1409 50 1
1409 65 1
1409 106 1
1409 140 1
1409 155 1
1409 257 1
1409 281 1
1409 289 1
1409 532 1
1409 547 1
1409 775 1
1409 805 1
1409 898 1
1409 945 1
1409 1030 1
1409 1823 1
1409 1831 1
1409 2056 1
1409 2081 1
1409 2116 1
1409 2244 1
1409 2337 1
1409 2561 1
1409 2563 1
1409 2693 1
1409 2849 1
1409 2949 1
1409 3075 1
1409 3735 1
1410 4 1
1410 161 1
1410 259 1
1410 399 1
1410 2057 1
1410 2075 1
1410 2113 1
1410 3085 1
1411 57 1
1411 177 1
1411 529 1
1411 1029 1
1411 1057 1
1411 1160 1
1411 1281 1
1411 1301 1
1411 2114 1
1411 2117 1
1411 2561 1
1411 3108 1
1411 3585 1
1412 261 1
1412 262 1
1412 513 1
1412 2185 1
1412 2249 1
1413 1 1
1413 15 1
1413 169 1
1413 513 1
1413 529 1
1413 1025 1
1413 1553 1
1413 1697 1
1413 2050 1
1413 2065 1
1413 2113 1
1414 33 1
1415 27 1
1415 285 1
1415 839 1
1415 1042 1
1415 2049 1
1416 193 1
1416 257 1
1417 1 1
1417 4 1
1417 30 1
1417 43 1
1417 265 1
1417 385 1
1417 577 1
1417 2849 1
1418 441 1
1418 518 1
1418 2465 1
1418 3073 1
1418 3105 1
1419 35 1
1419 75 1
1419 2965 1
1420 10 1
1421 129 1
1421 167 1
1421 1345 1
1422 401 1
1423 930 1
1425 3 1
1425 5 1
1425 19 1
1425 37 1
1425 52 1
1425 65 1
1425 97 1
1425 267 1
1425 386 1
1425 515 1
1425 523 1
1425 1057 1
1425 2082 1
1425 2145 1
1426 10 1
1426 257 1
1426 1388 1
1426 2057 1
1427 1 1
1427 5 1
1427 2561 1
1428 2049 1
1429 1 1
1429 18 1
1429 1126 1
1430 75 1
1430 290 1
1430 2589 1
1433 65 1
1433 641 1
1436 1 1
1437 2215 1
1439 533 1
1439 1297 1
1441 1 1
1441 17 1
1441 69 1
1441 257 1
1441 529 1
1441 610 1
1441 741 1
1441 1025 1
1441 2563 1
1441 3092 1
1441 3603 1
1442 65 1
1442 385 1
1442 2097 1
1443 25 1
1443 73 1
1443 583 1
1443 1003 1
1443 1027 1
1443 1345 1
1443 1554 1
1443 2049 1
1444 141 1
1445 513 1
1445 534 1
1445 553 1
1445 1161 1
1445 2058 1
1449 19 1
1449 225 1
1449 257 1
1449 1027 1
1449 1046 1
1449 2054 1
1449 3105 1
1450 673 1
1452 517 1
1452 2049 1
1453 129 1
1453 2323 1
1453 2644 1
1457 3 1
1457 10 1
1457 589 1
1457 2177 1
1457 2181 1
1458 2345 1
1458 2569 1
1459 2065 1
1462 2059 1
1464 33 1
1465 145 1
1465 2055 1
1465 2319 1
1467 2049 1
1469 301 1
1473 1 1
1473 3 1
1473 5 1
1473 17 1
1473 92 1
1473 186 1
1473 209 1
1473 325 1
1473 353 1
1473 513 1
1473 515 1
1473 525 1
1473 1029 1
1473 2074 1
1474 129 1
1474 259 1
1474 564 1
1474 813 1
1474 2051 1
1475 69 1
1475 198 1
1475 541 1
1475 2106 1
1475 3202 1
1476 2 1
1477 25 1
1477 49 1
1477 2181 1
1478 1057 1
1479 1 1
1481 257 1
1481 259 1
1481 515 1
1481 1025 1
1481 2049 1
1481 2086 1
1482 9 1
1484 1 1
1484 193 1
1485 1154 1
1486 65 1
1486 273 1
1489 585 1
1489 2565 1
1489 3105 1
1493 258 1
1501 913 1
1507 5 1
1509 67 1
1510 779 1
1521 729 1
1521 2067 1
1529 29 1
1529 257 1
1537 1 1
1537 2 1
1537 3 1
1537 7 1
1537 9 1
1537 10 1
1537 11 1
1537 13 1
1537 17 1
1537 18 1
1537 25 1
1537 28 1
1537 29 1
1537 33 1
1537 37 1
1537 41 1
1537 52 1
1537 58 1
1537 59 1
1537 65 1
1537 69 1
1537 99 1
1537 100 1
1537 121 1
1537 129 1
1537 130 1
1537 139 1
1537 162 1
1537 169 1
1537 193 1
1537 201 1
1537 212 1
1537 219 1
1537 257 1
1537 258 1
1537 273 1
1537 289 1
1537 297 1
1537 323 1
1537 329 1
1537 337 1
1537 347 1
1537 361 1
1537 385 1
1537 437 1
1537 489 1
1537 513 1
1537 514 1
1537 522 1
1537 545 1
1537 581 1
1537 586 1
1537 603 1
1537 646 1
1537 705 1
1537 710 1
1537 769 1
1537 804 1
1537 833 1
1537 867 1
1537 899 1
1537 1029 1
1537 1057 1
1537 1091 1
1537 1106 1
1537 1156 1
1537 1157 1
1537 1177 1
1537 1186 1
1537 1194 1
1537 1299 1
1537 1301 1
1537 1346 1
1537 1398 1
1537 1541 1
1537 1546 1
1537 1551 1
1537 1554 1
1537 1617 1
1537 1665 1
1537 1666 1
1537 1889 1
1537 2025 1
1537 2049 1
1537 2057 1
1537 2065 1
1537 2069 1
1537 2090 1
1537 2131 1
1537 2137 1
1537 2177 1
1537 2181 1
1537 2210 1
1537 2245 1
1537 2307 1
1537 2322 1
1537 2407 1
1537 2563 1
1537 2849 1
1537 3172 1
1537 3217 1
1537 3725 1
1537 3873 1
1538 1 1
1538 2 1
1538 3 1
1538 9 1
1538 11 1
1538 33 1
1538 41 1
1538 65 1
1538 68 1
1538 137 1
1538 163 1
1538 165 1
1538 219 1
1538 321 1
1538 326 1
1538 353 1
1538 361 1
1538 397 1
1538 417 1
1538 513 1
1538 521 1
1538 714 1
1538 970 1
1538 1115 1
1538 1153 1
1538 1217 1
1538 1553 1
1538 2049 1
1538 2065 1
1538 2071 1
1538 2081 1
1538 2113 1
1538 2573 1
1538 3345 1
1539 2 1
1539 3 1
1539 5 1
1539 9 1
1539 13 1
1539 42 1
1539 49 1
1539 58 1
1539 65 1
1539 66 1
1539 70 1
1539 83 1
1539 139 1
1539 161 1
1539 178 1
1539 183 1
1539 261 1
1539 265 1
1539 274 1
1539 298 1
1539 321 1
1539 385 1
1539 538 1
1539 599 1
1539 659 1
1539 785 1
1539 905 1
1539 1057 1
1539 1059 1
1539 1073 1
1539 1094 1
1539 1153 1
1539 1218 1
1539 1319 1
1539 1665 1
1539 2049 1
1539 2068 1
1539 2099 1
1539 2206 1
1539 2309 1
1539 3074 1
1539 3137 1
1539 3398 1
1540 1 1
1540 5 1
1540 9 1
1540 81 1
1540 165 1
1540 209 1
1540 225 1
1540 265 1
1540 267 1
1540 294 1
1540 518 1
1540 577 1
1540 665 1
1540 2069 1
1540 2775 1
1540 2949 1
1540 3849 1
1541 1 1
1541 9 1
1541 17 1
1541 19 1
1541 35 1
1541 53 1
1541 66 1
1541 128 1
1541 135 1
1541 145 1
1541 194 1
1541 257 1
1541 258 1
1541 270 1
1541 339 1
1541 441 1
1541 641 1
1541 746 1
1541 770 1
1541 773 1
1541 962 1
1541 1030 1
1541 1045 1
1541 1091 1
1541 1097 1
1541 1161 1
1541 1537 1
1541 1593 1
1541 1833 1
1541 2049 1
1541 2116 1
1541 2131 1
1541 2217 1
1541 2236 1
1541 2345 1
1541 2563 1
1541 2865 1
1541 2993 1
1542 2 1
1542 5 1
1542 41 1
1542 73 1
1542 129 1
1542 130 1
1542 529 1
1542 609 1
1542 1129 1
1542 1345 1
1542 2050 1
1542 2178 1
1542 2321 1
1542 2569 1
1543 69 1
1543 97 1
1543 585 1
1543 748 1
1543 1850 1
1543 2185 1
1543 3148 1
1543 3329 1
1544 353 1
1544 514 1
1544 641 1
1545 12 1
1545 14 1
1545 18 1
1545 20 1
1545 41 1
1545 53 1
1545 66 1
1545 81 1
1545 133 1
1545 135 1
1545 161 1
1545 165 1
1545 205 1
1545 217 1
1545 279 1
1545 281 1
1545 282 1
1545 325 1
1545 370 1
1545 458 1
1545 513 1
1545 561 1
1545 660 1
1545 771 1
1545 1026 1
1545 1075 1
1545 1166 1
1545 1585 1
1545 2101 1
1545 2114 1
1545 2209 1
1545 2285 1
1545 2305 1
1545 2497 1
1545 2577 1
1545 2889 1
1546 1 1
1546 3 1
1546 11 1
1546 53 1
1546 73 1
1546 211 1
1546 225 1
1546 1025 1
1546 1033 1
1546 1323 1
1546 1537 1
1546 2055 1
1546 2098 1
1546 2310 1
1547 1 1
1547 329 1
1547 353 1
1547 357 1
1547 517 1
1547 1039 1
1547 1089 1
1547 1090 1
1547 1122 1
1547 2054 1
1547 2146 1
1547 3083 1
1547 3146 1
1548 50 1
1548 533 1
1548 2305 1
1548 2849 1
1549 1 1
1549 3 1
1549 19 1
1549 28 1
1549 51 1
1549 97 1
1549 261 1
1549 283 1
1549 417 1
1549 514 1
1549 1057 1
1549 2049 1
1549 2054 1
1550 2 1
1550 524 1
1551 5 1
1551 225 1
1551 555 1
1551 1537 1
1551 2049 1
1551 2577 1
1551 2689 1
1551 3075 1
1551 3329 1
1552 1091 1
1553 1 1
1553 3 1
1553 6 1
1553 19 1
1553 39 1
1553 52 1
1553 91 1
1553 129 1
1553 193 1
1553 265 1
1553 273 1
1553 329 1
1553 391 1
1553 401 1
1553 417 1
1553 432 1
1553 443 1
1553 529 1
1553 641 1
1553 705 1
1553 1041 1
1553 1060 1
1553 1183 1
1553 1346 1
1553 1413 1
1553 1538 1
1553 1803 1
1553 1961 1
1553 2049 1
1553 2053 1
1553 2060 1
1553 2068 1
1553 2113 1
1553 2115 1
1553 2182 1
1553 2309 1
1553 2321 1
1553 2565 1
1553 2601 1
1553 2625 1
1553 2817 1
1553 3074 1
1553 3345 1
1554 1 1
1554 10 1
1554 13 1
1554 18 1
1554 32 1
1554 99 1
1554 171 1
1554 193 1
1554 275 1
1554 288 1
1554 513 1
1554 1302 1
1554 1443 1
1554 1537 1
1554 2049 1
1554 2056 1
1554 3157 1
1555 1 1
1555 4 1
1555 5 1
1555 7 1
1555 9 1
1555 18 1
1555 65 1
1555 129 1
1555 209 1
1555 553 1
1555 734 1
1555 777 1
1555 1025 1
1555 1053 1
1555 1222 1
1555 1315 1
1555 2866 1
1555 3089 1
1556 13 1
1556 641 1
1557 2 1
1557 9 1
1557 642 1
1557 781 1
1557 897 1
1557 1027 1
1557 2639 1
1558 133 1
1558 257 1
1558 641 1
1558 1315 1
1558 2049 1
1558 2053 1
1558 3637 1
1559 3 1
1559 7 1
1559 146 1
1559 257 1
1559 305 1
1559 2051 1
1559 2185 1
1561 1 1
1561 9 1
1561 10 1
1561 65 1
1561 129 1
1561 261 1
1561 325 1
1561 331 1
1561 561 1
1561 783 1
1561 810 1
1561 1222 1
1561 2049 1
1562 1 1
1562 33 1
1562 35 1
1562 2049 1
1563 1825 1
1563 2561 1
1563 3073 1
1564 5 1
1565 33 1
1565 661 1
1565 1041 1
1565 2057 1
1565 2177 1
1565 2817 1
1565 3081 1
1565 3609 1
1566 1 1
1566 929 1
1566 1065 1
1567 129 1
1567 1034 1
1569 1 1
1569 9 1
1569 11 1
1569 17 1
1569 20 1
1569 34 1
1569 39 1
1569 45 1
1569 65 1
1569 67 1
1569 110 1
1569 137 1
1569 145 1
1569 146 1
1569 165 1
1569 169 1
1569 211 1
1569 257 1
1569 301 1
1569 321 1
1569 513 1
1569 514 1
1569 521 1
1569 529 1
1569 579 1
1569 593 1
1569 659 1
1569 769 1
1569 891 1
1569 1067 1
1569 1074 1
1569 1861 1
1569 2050 1
1569 2053 1
1569 2054 1
1569 2177 1
1569 2181 1
1569 2633 1
1569 2689 1
1569 2819 1
1569 3147 1
1570 14 1
1570 73 1
1570 107 1
1570 1331 1
1570 1651 1
1570 2181 1
1570 2473 1
1570 2819 1
1570 3078 1
1571 5 1
1571 29 1
1571 74 1
1571 529 1
1571 571 1
1571 577 1
1571 673 1
1571 1026 1
1571 1030 1
1571 2073 1
1571 2162 1
1571 2201 1
1571 2357 1
1571 2563 1
1571 2953 1
1572 289 1
1572 387 1
1573 12 1
1573 17 1
1573 19 1
1573 65 1
1573 137 1
1573 147 1
1573 205 1
1573 209 1
1573 594 1
1573 897 1
1573 1025 1
1573 1055 1
1573 2241 1
1574 29 1
1574 135 1
1574 153 1
1574 291 1
1575 1 1
1575 34 1
1575 74 1
1575 2627 1
1576 65 1
1576 266 1
1576 1129 1
1577 3 1
1577 129 1
1577 149 1
1577 265 1
1577 805 1
1577 1089 1
1577 1777 1
1578 321 1
1578 739 1
1578 1089 1
1578 2049 1
1578 2065 1
1579 34 1
1579 209 1
1580 129 1
1580 190 1
1580 2050 1
1581 1 1
1581 1089 1
1581 2057 1
1581 2441 1
1582 345 1
1583 2625 1
1585 21 1
1585 45 1
1585 281 1
1585 1026 1
1585 1033 1
1585 1057 1
1585 1545 1
1585 1859 1
1585 2098 1
1585 3076 1
1586 97 1
1586 153 1
1586 332 1
1586 422 1
1586 3141 1
1587 3 1
1587 18 1
1587 135 1
1588 545 1
1589 195 1
1589 673 1
1589 2561 1
1589 3329 1
1590 529 1
1590 929 1
1590 1281 1
1593 261 1
1593 273 1
1593 1541 1
1593 2341 1
1594 3 1
1595 2101 1
1595 2305 1
1596 961 1
1596 1169 1
1597 2753 1
1601 1 1
1601 3 1
1601 9 1
1601 10 1
1601 26 1
1601 43 1
1601 53 1
1601 82 1
1601 144 1
1601 153 1
1601 197 1
1601 390 1
1601 707 1
1601 1025 1
1601 1077 1
1601 1186 1
1601 1331 1
1601 1353 1
1601 2049 1
1601 2057 1
1601 2059 1
1601 2069 1
1601 2197 1
1601 2245 1
1601 2306 1
1601 2561 1
1601 3115 1
1601 3338 1
1602 1 1
1602 21 1
1602 39 1
1602 133 1
1602 153 1
1602 257 1
1602 293 1
1602 407 1
1602 1073 1
1602 2049 1
1602 2177 1
1602 2420 1
1603 329 1
1603 419 1
1603 577 1
1603 1027 1
1603 1035 1
1603 1057 1
1603 2049 1
1603 2179 1
1603 2371 1
1603 2487 1
1603 3633 1
1604 333 1
1604 517 1
1604 2433 1
1605 3 1
1605 13 1
1605 41 1
1605 106 1
1605 136 1
1605 142 1
1605 146 1
1605 547 1
1605 923 1
1605 1035 1
1605 1921 1
1605 2481 1
1605 2593 1
1605 2834 1
1606 1 1
1606 8 1
1606 65 1
1606 195 1
1606 523 1
1606 2629 1
1606 3076 1
1606 3078 1
1607 481 1
1607 532 1
1607 3139 1
1608 2402 1
1609 15 1
1609 17 1
1609 22 1
1609 154 1
1609 401 1
1609 409 1
1609 513 1
1609 525 1
1609 2103 1
1609 2433 1
1609 2637 1
1610 9 1
1610 66 1
1610 67 1
1610 329 1
1610 417 1
1610 577 1
1610 2457 1
1611 5 1
1611 51 1
1611 130 1
1611 262 1
1611 545 1
1611 1025 1
1611 1169 1
1612 359 1
1613 14 1
1613 67 1
1613 97 1
1614 2050 1
1614 3203 1
1617 4 1
1617 9 1
1617 109 1
1617 138 1
1617 206 1
1617 269 1
1617 278 1
1617 519 1
1617 649 1
1617 776 1
1617 777 1
1617 929 1
1617 1047 1
1617 1158 1
1617 1537 1
1617 2049 1
1617 2064 1
1618 2 1
1618 529 1
1618 1089 1
1618 1285 1
1618 2581 1
1619 1 1
1619 101 1
1621 1 1
1621 15 1
1621 1025 1
1621 2053 1
1622 145 1
1622 2531 1
1623 2820 1
1625 126 1
1625 290 1
1625 513 1
1625 517 1
1626 514 1
1626 2053 1
1627 44 1
1627 2323 1
1627 3618 1
1628 3137 1
1629 65 1
1633 3 1
1633 17 1
1633 129 1
1633 194 1
1633 265 1
1633 289 1
1633 293 1
1633 533 1
1633 2450 1
1633 2575 1
1634 9 1
1634 100 1
1634 145 1
1634 2593 1
1634 3271 1
1635 1 1
1635 2177 1
1635 2787 1
1636 545 1
1636 897 1
1637 1099 1
1637 2185 1
1637 2225 1
1638 115 1
1638 513 1
1639 2058 1
1640 65 1
1641 2 1
1641 145 1
1641 257 1
1641 422 1
1641 1043 1
1641 2049 1
1641 3169 1
1642 515 1
1642 1028 1
1643 68 1
1643 1803 1
1644 2 1
1645 321 1
1645 1329 1
1646 65 1
1647 130 1
1649 1033 1
1649 2561 1
1650 770 1
1650 2266 1
1651 69 1
1651 385 1
1651 1570 1
1651 2641 1
1652 1282 1
1653 2673 1
1658 1283 1
1659 2050 1
1665 1 1
1665 6 1
1665 9 1
1665 35 1
1665 66 1
1665 67 1
1665 70 1
1665 73 1
1665 89 1
1665 130 1
1665 137 1
1665 185 1
1665 193 1
1665 197 1
1665 260 1
1665 265 1
1665 289 1
1665 291 1
1665 326 1
1665 353 1
1665 417 1
1665 513 1
1665 527 1
1665 529 1
1665 534 1
1665 549 1
1665 552 1
1665 565 1
1665 645 1
1665 721 1
1665 769 1
1665 1107 1
1665 1537 1
1665 1539 1
1665 2073 1
1665 2081 1
1665 2085 1
1665 2181 1
1665 2313 1
1665 2370 1
1665 2819 1
1665 2946 1
1665 3019 1
1665 3138 1
1665 3737 1
1666 42 1
1666 51 1
1666 68 1
1666 209 1
1666 292 1
1666 515 1
1666 649 1
1666 1537 1
1666 2069 1
1666 2077 1
1666 3905 1
1667 9 1
1667 54 1
1667 97 1
1667 271 1
1667 298 1
1667 523 1
1667 581 1
1667 967 1
1667 1031 1
1667 2081 1
1667 2313 1
1667 3217 1
1667 3407 1
1668 69 1
1668 2053 1
1668 2134 1
1669 173 1
1669 277 1
1669 514 1
1669 801 1
1669 1285 1
1669 2117 1
1669 2179 1
1669 2206 1
1669 3185 1
1670 10 1
1670 12 1
1670 67 1
1670 259 1
1670 2137 1
1670 2641 1
1671 257 1
1671 1156 1
1671 2189 1
1673 5 1
1673 9 1
1673 41 1
1673 141 1
1673 217 1
1673 257 1
1673 547 1
1673 1081 1
1673 1096 1
1673 1155 1
1673 2129 1
1673 3090 1
1674 2122 1
1674 3137 1
1675 65 1
1675 1041 1
1675 2055 1
1675 2082 1
1675 2101 1
1675 2433 1
1677 1 1
1677 547 1
1677 761 1
1677 2196 1
1677 3588 1
1678 177 1
1678 1281 1
1679 263 1
1679 323 1
1679 1033 1
1680 2179 1
1681 1 1
1681 25 1
1681 30 1
1681 89 1
1681 193 1
1681 194 1
1681 221 1
1681 260 1
1681 274 1
1681 275 1
1681 562 1
1681 577 1
1681 801 1
1681 2066 1
1681 2131 1
1681 2626 1
1682 329 1
1683 1 1
1683 9 1
1683 337 1
1683 3592 1
1684 366 1
1684 673 1
1684 2217 1
1685 659 1
1687 1303 1
1687 2310 1
1689 81 1
1689 359 1
1689 2057 1
1690 3404 1
1692 289 1
1692 1025 1
1693 2050 1
1694 1289 1
1697 1 1
1697 17 1
1697 53 1
1697 99 1
1697 258 1
1697 262 1
1697 306 1
1697 529 1
1697 1029 1
1697 1294 1
1697 1413 1
1697 2209 1
1697 2337 1
1698 1153 1
1698 2177 1
1699 17 1
1699 1091 1
1699 2055 1
1701 65 1
1701 2134 1
1705 2 1
1705 4 1
1705 805 1
1705 1045 1
1706 1 1
1707 1 1
1709 3 1
1709 2307 1
1710 65 1
1713 9 1
1713 72 1
1713 129 1
1713 131 1
1713 137 1
1713 259 1
1713 290 1
1713 581 1
1713 2659 1
1715 265 1
1715 273 1
1716 1097 1
1723 145 1
1725 1169 1
1728 3107 1
1729 75 1
1729 641 1
1729 817 1
1729 1153 1
1729 2049 1
1729 2073 1
1729 2183 1
1729 2565 1
1729 2709 1
1729 2922 1
1730 1 1
1730 137 1
1730 770 1
1730 1105 1
1730 2089 1
1730 2145 1
1731 2061 1
1731 3009 1
1732 17 1
1732 2049 1
1733 1027 1
1733 1361 1
1733 2066 1
1734 185 1
1734 513 1
1738 541 1
1738 2049 1
1739 129 1
1741 577 1
1743 161 1
1745 1 1
1745 291 1
1745 545 1
1746 2145 1
1746 2690 1
1746 2817 1
1747 257 1
1755 17 1
1761 2057 1
1761 2089 1
1762 261 1
1762 276 1
1762 2189 1
1765 14 1
1777 9 1
1777 18 1
1777 1577 1
1777 2102 1
1781 561 1
1787 67 1
1793 1 1
1793 3 1
1793 8 1
1793 9 1
1793 17 1
1793 21 1
1793 33 1
1793 38 1
1793 65 1
1793 66 1
1793 67 1
1793 81 1
1793 113 1
1793 129 1
1793 297 1
1793 338 1
1793 386 1
1793 394 1
1793 523 1
1793 618 1
1793 642 1
1793 725 1
1793 769 1
1793 1025 1
1793 1034 1
1793 1041 1
1793 1042 1
1793 1179 1
1793 1193 1
1793 2083 1
1793 2085 1
1793 2113 1
1793 2129 1
1793 2137 1
1793 2226 1
1793 2311 1
1793 2409 1
1793 2517 1
1793 2563 1
1793 3073 1
1794 641 1
1794 785 1
1794 1002 1
1794 1033 1
1794 2049 1
1794 2066 1
1794 2821 1
1794 3073 1
1794 3137 1
1794 3169 1
1795 11 1
1795 33 1
1795 41 1
1795 130 1
1795 135 1
1795 274 1
1795 337 1
1795 515 1
1795 533 1
1795 1041 1
1795 2052 1
1795 2129 1
1795 2221 1
1795 2561 1
1795 3078 1
1795 3081 1
1796 77 1
1796 421 1
1796 2317 1
1797 1 1
1797 6 1
1797 25 1
1797 38 1
1797 82 1
1797 129 1
1797 131 1
1797 513 1
1797 769 1
1797 818 1
1797 1043 1
1798 1 1
1798 385 1
1798 2051 1
1799 73 1
1799 263 1
1799 1025 1
1799 3098 1
1801 2 1
1801 17 1
1801 33 1
1801 35 1
1801 261 1
1801 564 1
1801 577 1
1801 1025 1
1801 2057 1
1801 2310 1
1801 3145 1
1802 1 1
1802 2091 1
1803 69 1
1803 521 1
1803 769 1
1803 1029 1
1803 1553 1
1803 1643 1
1804 35 1
1804 129 1
1805 17 1
1805 257 1
1806 17 1
1807 529 1
1807 3465 1
1808 3857 1
1809 2 1
1809 17 1
1809 33 1
1809 42 1
1809 611 1
1809 1025 1
1809 1155 1
1809 2131 1
1809 2177 1
1809 2585 1
1810 69 1
1810 129 1
1810 141 1
1810 1069 1
1810 2561 1
1811 135 1
1811 595 1
1811 779 1
1811 2049 1
1811 2561 1
1812 6 1
1812 321 1
1813 151 1
1813 1129 1
1813 1281 1
1813 2049 1
1813 2153 1
1814 17 1
1817 3 1
1817 641 1
1817 2181 1
1818 65 1
1821 1351 1
1822 35 1
1823 1409 1
1825 1 1
1825 2 1
1825 265 1
1825 278 1
1825 449 1
1825 1563 1
1825 2049 1
1825 2050 1
1825 2213 1
1825 3073 1
1825 3089 1
1825 3345 1
1826 41 1
1826 130 1
1826 1025 1
1826 1041 1
1826 3081 1
1827 321 1
1827 801 1
1827 1041 1
1827 1049 1
1827 2179 1
1827 2315 1
1828 49 1
1828 369 1
1829 1 1
1829 92 1
1829 449 1
1830 8 1
1831 11 1
1831 1409 1
1833 13 1
1833 35 1
1833 1541 1
1833 2753 1
1834 1049 1
1835 2 1
1835 2049 1
1835 2130 1
1837 1 1
1837 130 1
1841 17 1
1841 25 1
1841 513 1
1841 562 1
1843 66 1
1844 1 1
1845 2 1
1845 68 1
1845 258 1
1846 2573 1
1850 1543 1
1851 161 1
1857 131 1
1857 514 1
1857 613 1
1857 1067 1
1857 1156 1
1857 2113 1
1857 2257 1
1857 3523 1
1858 8 1
1858 275 1
1858 2049 1
1858 2053 1
1858 2061 1
1858 2337 1
1859 38 1
1859 60 1
1859 401 1
1859 525 1
1859 1143 1
1859 1585 1
1859 2565 1
1859 3141 1
1861 15 1
1861 1569 1
1861 2563 1
1861 3379 1
1862 417 1
1862 1313 1
1863 1 1
1864 1157 1
1865 75 1
1865 137 1
1865 162 1
1866 546 1
1866 2053 1
1866 2177 1
1867 517 1
1867 3141 1
1873 257 1
1873 2097 1
1874 353 1
1877 2849 1
1881 2061 1
1886 530 1
1889 33 1
1889 1154 1
1889 1537 1
1890 17 1
1890 659 1
1891 128 1
1891 2077 1
1897 3857 1
1898 18 1
1905 1034 1
1907 515 1
1913 65 1
1921 1 1
1921 2 1
1921 5 1
1921 10 1
1921 13 1
1921 66 1
1921 337 1
1921 577 1
1921 748 1
1921 771 1
1921 1057 1
1921 1282 1
1921 1605 1
1921 2307 1
1921 3073 1
1922 1026 1
1923 17 1
1923 1049 1
1923 1348 1
1924 133 1
1924 136 1
1924 2353 1
1925 129 1
1925 513 1
1925 1089 1
1928 341 1
1929 34 1
1929 162 1
1929 677 1
1929 1154 1
1929 2049 1
1930 565 1
1931 37 1
1931 258 1
1932 1041 1
1933 5 1
1934 1 1
1937 1 1
1937 89 1
1937 513 1
1937 3073 1
1938 874 1
1938 1346 1
1938 2058 1
1939 52 1
1939 545 1
1942 65 1
1942 517 1
1943 3951 1
1945 2050 1
1949 2117 1
1953 15 1
1953 257 1
1954 3 1
1955 33 1
1955 577 1
1955 2633 1
1957 257 1
1958 33 1
1959 3457 1
1961 1553 1
1962 2050 1
1966 66 1
1966 269 1
1969 2113 1
1971 1 1
1985 10 1
1985 21 1
1985 1298 1
1985 2097 1
1985 2563 1
1987 2053 1
1987 3297 1
1992 2155 1
1993 34 1
1993 705 1
2001 1 1
2001 7 1
2005 1041 1
2017 74 1
2019 1 1
2019 770 1
2020 33 1
2022 2185 1
2025 33 1
2025 1537 1
2049 1 1
2049 2 1
2049 3 1
2049 4 1
2049 5 1
2049 6 1
2049 9 1
2049 11 1
2049 12 1
2049 13 1
2049 14 1
2049 17 1
2049 18 1
2049 20 1
2049 21 1
2049 23 1
2049 25 1
2049 26 1
2049 27 1
2049 33 1
2049 34 1
2049 35 1
2049 36 1
2049 39 1
2049 40 1
2049 41 1
2049 49 1
2049 53 1
2049 58 1
2049 61 1
2049 62 1
2049 65 1
2049 69 1
2049 70 1
2049 71 1
2049 75 1
2049 81 1
2049 82 1
2049 85 1
2049 86 1
2049 88 1
2049 97 1
2049 99 1
2049 113 1
2049 116 1
2049 129 1
2049 130 1
2049 132 1
2049 135 1
2049 139 1
2049 142 1
2049 145 1
2049 147 1
2049 148 1
2049 150 1
2049 151 1
2049 157 1
2049 161 1
2049 162 1
2049 193 1
2049 195 1
2049 199 1
2049 201 1
2049 210 1
2049 213 1
2049 215 1
2049 225 1
2049 257 1
2049 259 1
2049 261 1
2049 262 1
2049 265 1
2049 269 1
2049 273 1
2049 274 1
2049 289 1
2049 291 1
2049 307 1
2049 321 1
2049 325 1
2049 353 1
2049 378 1
2049 385 1
2049 393 1
2049 395 1
2049 402 1
2049 407 1
2049 417 1
2049 421 1
2049 489 1
2049 513 1
2049 514 1
2049 517 1
2049 519 1
2049 521 1
2049 523 1
2049 524 1
2049 529 1
2049 537 1
2049 553 1
2049 555 1
2049 561 1
2049 570 1
2049 577 1
2049 579 1
2049 585 1
2049 611 1
2049 641 1
2049 643 1
2049 645 1
2049 649 1
2049 651 1
2049 658 1
2049 661 1
2049 673 1
2049 676 1
2049 708 1
2049 769 1
2049 770 1
2049 771 1
2049 777 1
2049 785 1
2049 789 1
2049 801 1
2049 802 1
2049 808 1
2049 809 1
2049 833 1
2049 835 1
2049 854 1
2049 898 1
2049 899 1
2049 1025 1
2049 1026 1
2049 1027 1
2049 1029 1
2049 1037 1
2049 1041 1
2049 1043 1
2049 1057 1
2049 1059 1
2049 1061 1
2049 1065 1
2049 1073 1
2049 1089 1
2049 1090 1
2049 1093 1
2049 1108 1
2049 1111 1
2049 1121 1
2049 1122 1
2049 1140 1
2049 1156 1
2049 1161 1
2049 1193 1
2049 1201 1
2049 1202 1
2049 1219 1
2049 1281 1
2049 1282 1
2049 1285 1
2049 1287 1
2049 1291 1
2049 1295 1
2049 1301 1
2049 1305 1
2049 1314 1
2049 1322 1
2049 1361 1
2049 1415 1
2049 1428 1
2049 1443 1
2049 1452 1
2049 1467 1
2049 1481 1
2049 1537 1
2049 1538 1
2049 1539 1
2049 1541 1
2049 1549 1
2049 1551 1
2049 1553 1
2049 1554 1
2049 1558 1
2049 1561 1
2049 1562 1
2049 1578 1
2049 1601 1
2049 1602 1
2049 1603 1
2049 1617 1
2049 1641 1
2049 1729 1
2049 1732 1
2049 1738 1
2049 1794 1
2049 1811 1
2049 1813 1
2049 1825 1
2049 1835 1
2049 1858 1
2049 1929 1
2049 2050 1
2049 2053 1
2049 2056 1
2049 2057 1
2049 2059 1
2049 2061 1
2049 2063 1
2049 2065 1
2049 2081 1
2049 2088 1
2049 2089 1
2049 2109 1
2049 2110 1
2049 2113 1
2049 2114 1
2049 2115 1
2049 2117 1
2049 2147 1
2049 2166 1
2049 2177 1
2049 2181 1
2049 2209 1
2049 2225 1
2049 2233 1
2049 2281 1
2049 2306 1
2049 2307 1
2049 2313 1
2049 2321 1
2049 2329 1
2049 2357 1
2049 2369 1
2049 2370 1
2049 2417 1
2049 2443 1
2049 2450 1
2049 2563 1
2049 2569 1
2049 2579 1
2049 2581 1
2049 2589 1
2049 2626 1
2049 2682 1
2049 2697 1
2049 2698 1
2049 2754 1
2049 2818 1
2049 2841 1
2049 2845 1
2049 2851 1
2049 2901 1
2049 2902 1
2049 2945 1
2049 2950 1
2049 2953 1
2049 3073 1
2049 3077 1
2049 3079 1
2049 3080 1
2049 3081 1
2049 3105 1
2049 3171 1
2049 3202 1
2049 3231 1
2049 3339 1
2049 3341 1
2049 3370 1
2049 3459 1
2049 3585 1
2049 3597 1
2050 1 1
2050 2 1
2050 3 1
2050 6 1
2050 7 1
2050 9 1
2050 11 1
2050 17 1
2050 20 1
2050 33 1
2050 34 1
2050 35 1
2050 36 1
2050 49 1
2050 57 1
2050 65 1
2050 67 1
2050 68 1
2050 69 1
2050 74 1
2050 97 1
2050 121 1
2050 129 1
2050 133 1
2050 137 1
2050 161 1
2050 163 1
2050 165 1
2050 210 1
2050 257 1
2050 259 1
2050 261 1
2050 265 1
2050 269 1
2050 283 1
2050 293 1
2050 325 1
2050 385 1
2050 393 1
2050 513 1
2050 516 1
2050 518 1
2050 525 1
2050 545 1
2050 558 1
2050 578 1
2050 585 1
2050 791 1
2050 1025 1
2050 1029 1
2050 1032 1
2050 1045 1
2050 1055 1
2050 1061 1
2050 1093 1
2050 1153 1
2050 1162 1
2050 1314 1
2050 1329 1
2050 1413 1
2050 1542 1
2050 1569 1
2050 1580 1
2050 1614 1
2050 1659 1
2050 1693 1
2050 1825 1
2050 1945 1
2050 1962 1
2050 2049 1
2050 2053 1
2050 2057 1
2050 2065 1
2050 2085 1
2050 2097 1
2050 2113 1
2050 2115 1
2050 2145 1
2050 2153 1
2050 2177 1
2050 2182 1
2050 2188 1
2050 2201 1
2050 2305 1
2050 2313 1
2050 2386 1
2050 2395 1
2050 2435 1
2050 2499 1
2050 2561 1
2050 2565 1
2050 2594 1
2050 2949 1
2050 3075 1
2050 3081 1
2050 3105 1
2050 3106 1
2050 3114 1
2050 3201 1
2050 3210 1
2050 3613 1
2051 1 1
2051 2 1
2051 3 1
2051 5 1
2051 9 1
2051 17 1
2051 25 1
2051 27 1
2051 33 1
2051 35 1
2051 43 1
2051 53 1
2051 65 1
2051 69 1
2051 73 1
2051 77 1
2051 81 1
2051 129 1
2051 130 1
2051 131 1
2051 133 1
2051 137 1
2051 165 1
2051 183 1
2051 193 1
2051 205 1
2051 209 1
2051 219 1
2051 225 1
2051 257 1
2051 258 1
2051 262 1
2051 265 1
2051 294 1
2051 297 1
2051 298 1
2051 305 1
2051 321 1
2051 322 1
2051 341 1
2051 363 1
2051 377 1
2051 433 1
2051 513 1
2051 533 1
2051 546 1
2051 547 1
2051 553 1
2051 585 1
2051 593 1
2051 597 1
2051 607 1
2051 610 1
2051 641 1
2051 642 1
2051 645 1
2051 647 1
2051 658 1
2051 709 1
2051 769 1
2051 774 1
2051 777 1
2051 785 1
2051 789 1
2051 1027 1
2051 1031 1
2051 1041 1
2051 1053 1
2051 1058 1
2051 1065 1
2051 1073 1
2051 1089 1
2051 1098 1
2051 1157 1
2051 1202 1
2051 1281 1
2051 1353 1
2051 1474 1
2051 1559 1
2051 1798 1
2051 2055 1
2051 2081 1
2051 2097 1
2051 2129 1
2051 2130 1
2051 2185 1
2051 2187 1
2051 2446 1
2051 2473 1
2051 2539 1
2051 2561 1
2051 2570 1
2051 2585 1
2051 2619 1
2051 2633 1
2051 2883 1
2051 3075 1
2051 3137 1
2051 3221 1
2051 3601 1
2051 3725 1
2052 1 1
2052 2 1
2052 3 1
2052 6 1
2052 9 1
2052 10 1
2052 23 1
2052 41 1
2052 53 1
2052 65 1
2052 73 1
2052 133 1
2052 177 1
2052 181 1
2052 257 1
2052 259 1
2052 265 1
2052 397 1
2052 518 1
2052 529 1
2052 545 1
2052 577 1
2052 651 1
2052 673 1
2052 770 1
2052 801 1
2052 804 1
2052 897 1
2052 908 1
2052 1101 1
2052 1153 1
2052 1169 1
2052 1313 1
2052 1795 1
2052 2121 1
2052 2185 1
2052 2257 1
2052 2343 1
2053 1 1
2053 2 1
2053 3 1
2053 5 1
2053 6 1
2053 9 1
2053 13 1
2053 15 1
2053 20 1
2053 25 1
2053 33 1
2053 35 1
2053 43 1
2053 51 1
2053 65 1
2053 69 1
2053 73 1
2053 77 1
2053 81 1
2053 84 1
2053 115 1
2053 131 1
2053 137 1
2053 138 1
2053 145 1
2053 146 1
2053 152 1
2053 155 1
2053 165 1
2053 169 1
2053 193 1
2053 215 1
2053 257 1
2053 258 1
2053 259 1
2053 264 1
2053 265 1
2053 266 1
2053 273 1
2053 275 1
2053 290 1
2053 357 1
2053 389 1
2053 397 1
2053 411 1
2053 417 1
2053 419 1
2053 513 1
2053 514 1
2053 515 1
2053 518 1
2053 519 1
2053 521 1
2053 529 1
2053 545 1
2053 546 1
2053 547 1
2053 553 1
2053 562 1
2053 570 1
2053 577 1
2053 578 1
2053 642 1
2053 657 1
2053 713 1
2053 769 1
2053 778 1
2053 781 1
2053 785 1
2053 818 1
2053 1025 1
2053 1026 1
2053 1027 1
2053 1031 1
2053 1049 1
2053 1057 1
2053 1061 1
2053 1065 1
2053 1092 1
2053 1153 1
2053 1156 1
2053 1164 1
2053 1193 1
2053 1311 1
2053 1339 1
2053 1345 1
2053 1553 1
2053 1558 1
2053 1569 1
2053 1621 1
2053 1626 1
2053 1668 1
2053 1858 1
2053 1866 1
2053 1987 1
2053 2049 1
2053 2050 1
2053 2055 1
2053 2059 1
2053 2074 1
2053 2097 1
2053 2121 1
2053 2129 1
2053 2165 1
2053 2185 1
2053 2199 1
2053 2241 1
2053 2245 1
2053 2309 1
2053 2337 1
2053 2471 1
2053 2659 1
2053 3073 1
2053 3081 1
2053 3095 1
2053 3129 1
2053 3147 1
2053 3215 1
2053 3281 1
2053 3585 1
2053 3657 1
2054 1 1
2054 8 1
2054 29 1
2054 42 1
2054 65 1
2054 73 1
2054 85 1
2054 107 1
2054 127 1
2054 137 1
2054 150 1
2054 228 1
2054 259 1
2054 290 1
2054 293 1
2054 295 1
2054 345 1
2054 513 1
2054 514 1
2054 515 1
2054 537 1
2054 545 1
2054 657 1
2054 705 1
2054 793 1
2054 1153 1
2054 1318 1
2054 1449 1
2054 1547 1
2054 1549 1
2054 1569 1
2054 2179 1
2054 2241 1
2054 2305 1
2054 2341 1
2054 2361 1
2054 3363 1
2054 3841 1
2055 4 1
2055 5 1
2055 8 1
2055 9 1
2055 11 1
2055 25 1
2055 41 1
2055 49 1
2055 50 1
2055 68 1
2055 73 1
2055 145 1
2055 146 1
2055 167 1
2055 193 1
2055 209 1
2055 258 1
2055 259 1
2055 265 1
2055 290 1
2055 386 1
2055 401 1
2055 513 1
2055 524 1
2055 545 1
2055 581 1
2055 591 1
2055 661 1
2055 854 1
2055 898 1
2055 1025 1
2055 1029 1
2055 1030 1
2055 1041 1
2055 1057 1
2055 1090 1
2055 1093 1
2055 1106 1
2055 1282 1
2055 1345 1
2055 1465 1
2055 1546 1
2055 1675 1
2055 1699 1
2055 2051 1
2055 2053 1
2055 2105 1
2055 2115 1
2055 2311 1
2055 2341 1
2055 2697 1
2055 2850 1
2055 3074 1
2055 3077 1
2055 3094 1
2055 3177 1
2055 3400 1
2055 3586 1
2055 3617 1
2055 3844 1
2056 139 1
2056 257 1
2056 258 1
2056 519 1
2056 1099 1
2056 1157 1
2056 1409 1
2056 1554 1
2056 2049 1
2056 2059 1
2056 2269 1
2056 2606 1
2057 1 1
2057 2 1
2057 3 1
2057 5 1
2057 6 1
2057 7 1
2057 11 1
2057 17 1
2057 20 1
2057 33 1
2057 47 1
2057 49 1
2057 65 1
2057 66 1
2057 73 1
2057 74 1
2057 81 1
2057 82 1
2057 88 1
2057 98 1
2057 101 1
2057 113 1
2057 129 1
2057 131 1
2057 133 1
2057 135 1
2057 145 1
2057 165 1
2057 186 1
2057 200 1
2057 257 1
2057 259 1
2057 265 1
2057 266 1
2057 289 1
2057 291 1
2057 305 1
2057 364 1
2057 433 1
2057 474 1
2057 513 1
2057 514 1
2057 515 1
2057 517 1
2057 521 1
2057 523 1
2057 534 1
2057 537 1
2057 545 1
2057 551 1
2057 562 1
2057 577 1
2057 586 1
2057 594 1
2057 629 1
2057 658 1
2057 715 1
2057 769 1
2057 770 1
2057 773 1
2057 785 1
2057 802 1
2057 833 1
2057 834 1
2057 1025 1
2057 1027 1
2057 1033 1
2057 1041 1
2057 1044 1
2057 1053 1
2057 1061 1
2057 1089 1
2057 1093 1
2057 1105 1
2057 1153 1
2057 1156 1
2057 1190 1
2057 1410 1
2057 1426 1
2057 1537 1
2057 1565 1
2057 1581 1
2057 1601 1
2057 1689 1
2057 1761 1
2057 1801 1
2057 2049 1
2057 2050 1
2057 2065 1
2057 2066 1
2057 2097 1
2057 2102 1
2057 2114 1
2057 2123 1
2057 2209 1
2057 2213 1
2057 2310 1
2057 2311 1
2057 2313 1
2057 2343 1
2057 2356 1
2057 2371 1
2057 2465 1
2057 2561 1
2057 2572 1
2057 2574 1
2057 2580 1
2057 2817 1
2057 3073 1
2057 3075 1
2057 3129 1
2057 3329 1
2058 9 1
2058 68 1
2058 73 1
2058 97 1
2058 258 1
2058 260 1
2058 261 1
2058 269 1
2058 273 1
2058 305 1
2058 356 1
2058 385 1
2058 518 1
2058 525 1
2058 537 1
2058 593 1
2058 609 1
2058 642 1
2058 643 1
2058 649 1
2058 661 1
2058 693 1
2058 697 1
2058 713 1
2058 1025 1
2058 1042 1
2058 1045 1
2058 1089 1
2058 1121 1
2058 1281 1
2058 1329 1
2058 1445 1
2058 1639 1
2058 1938 1
2058 2082 1
2058 2185 1
2058 2307 1
2058 2329 1
2058 2337 1
2058 2575 1
2058 3073 1
2058 3337 1
2059 4 1
2059 13 1
2059 18 1
2059 33 1
2059 134 1
2059 147 1
2059 177 1
2059 193 1
2059 212 1
2059 261 1
2059 289 1
2059 349 1
2059 516 1
2059 527 1
2059 674 1
2059 735 1
2059 802 1
2059 886 1
2059 1034 1
2059 1045 1
2059 1049 1
2059 1153 1
2059 1281 1
2059 1293 1
2059 1330 1
2059 1462 1
2059 1601 1
2059 2049 1
2059 2053 1
2059 2056 1
2059 2149 1
2059 2339 1
2059 2565 1
2059 2641 1
2059 2827 1
2059 3137 1
2059 3165 1
2060 2 1
2060 3 1
2060 9 1
2060 17 1
2060 46 1
2060 389 1
2060 393 1
2060 454 1
2060 625 1
2060 1125 1
2060 1350 1
2060 1553 1
2060 2115 1
2060 2443 1
2060 3089 1
2060 3585 1
2061 1 1
2061 21 1
2061 27 1
2061 65 1
2061 81 1
2061 89 1
2061 161 1
2061 195 1
2061 257 1
2061 272 1
2061 273 1
2061 325 1
2061 354 1
2061 522 1
2061 549 1
2061 550 1
2061 553 1
2061 577 1
2061 588 1
2061 593 1
2061 803 1
2061 1029 1
2061 1030 1
2061 1041 1
2061 1042 1
2061 1059 1
2061 1109 1
2061 1173 1
2061 1201 1
2061 1313 1
2061 1731 1
2061 1858 1
2061 1881 1
2061 2049 1
2061 2065 1
2061 2243 1
2061 2658 1
2061 2785 1
2061 3074 1
2061 3109 1
2062 17 1
2062 51 1
2062 66 1
2062 69 1
2062 210 1
2062 321 1
2062 643 1
2062 1233 1
2062 2065 1
2062 2305 1
2062 2453 1
2063 1 1
2063 17 1
2063 198 1
2063 258 1
2063 273 1
2063 513 1
2063 658 1
2063 1025 1
2063 1065 1
2063 2049 1
2063 2305 1
2063 2626 1
2063 2917 1
2063 3081 1
2064 21 1
2064 1025 1
2064 1617 1
2065 1 1
2065 2 1
2065 3 1
2065 4 1
2065 5 1
2065 6 1
2065 9 1
2065 10 1
2065 13 1
2065 19 1
2065 25 1
2065 35 1
2065 42 1
2065 43 1
2065 53 1
2065 68 1
2065 69 1
2065 70 1
2065 75 1
2065 78 1
2065 82 1
2065 83 1
2065 115 1
2065 129 1
2065 130 1
2065 131 1
2065 135 1
2065 137 1
2065 145 1
2065 161 1
2065 162 1
2065 172 1
2065 210 1
2065 241 1
2065 260 1
2065 261 1
2065 266 1
2065 273 1
2065 297 1
2065 299 1
2065 324 1
2065 325 1
2065 326 1
2065 330 1
2065 345 1
2065 393 1
2065 401 1
2065 513 1
2065 521 1
2065 529 1
2065 545 1
2065 553 1
2065 618 1
2065 651 1
2065 674 1
2065 705 1
2065 707 1
2065 713 1
2065 714 1
2065 770 1
2065 809 1
2065 912 1
2065 1025 1
2065 1026 1
2065 1027 1
2065 1029 1
2065 1033 1
2065 1055 1
2065 1059 1
2065 1091 1
2065 1097 1
2065 1153 1
2065 1154 1
2065 1155 1
2065 1176 1
2065 1281 1
2065 1313 1
2065 1413 1
2065 1459 1
2065 1537 1
2065 1538 1
2065 1578 1
2065 2049 1
2065 2050 1
2065 2057 1
2065 2061 1
2065 2062 1
2065 2179 1
2065 2193 1
2065 2209 1
2065 2227 1
2065 2243 1
2065 2249 1
2065 2305 1
2065 2341 1
2065 2361 1
2065 2562 1
2065 2582 1
2065 2586 1
2065 2641 1
2065 3141 1
2065 3186 1
2065 3458 1
2065 3609 1
2065 3977 1
2066 1 1
2066 2 1
2066 3 1
2066 7 1
2066 9 1
2066 11 1
2066 25 1
2066 54 1
2066 69 1
2066 71 1
2066 98 1
2066 101 1
2066 129 1
2066 169 1
2066 258 1
2066 513 1
2066 1027 1
2066 1028 1
2066 1041 1
2066 1057 1
2066 1085 1
2066 1089 1
2066 1103 1
2066 1681 1
2066 1733 1
2066 1794 1
2066 2057 1
2066 2089 1
2066 2253 1
2066 3423 1
2066 3822 1
2067 1 1
2067 2 1
2067 3 1
2067 5 1
2067 18 1
2067 33 1
2067 41 1
2067 65 1
2067 129 1
2067 133 1
2067 137 1
2067 141 1
2067 225 1
2067 258 1
2067 326 1
2067 387 1
2067 457 1
2067 514 1
2067 516 1
2067 519 1
2067 1025 1
2067 1026 1
2067 1035 1
2067 1049 1
2067 1113 1
2067 1233 1
2067 1521 1
2067 2337 1
2067 2693 1
2067 3221 1
2068 2 1
2068 3 1
2068 9 1
2068 155 1
2068 273 1
2068 777 1
2068 1097 1
2068 1229 1
2068 1539 1
2068 1553 1
2068 2146 1
2068 2177 1
2068 3086 1
2069 1 1
2069 2 1
2069 3 1
2069 9 1
2069 11 1
2069 13 1
2069 17 1
2069 33 1
2069 65 1
2069 66 1
2069 81 1
2069 98 1
2069 261 1
2069 513 1
2069 525 1
2069 769 1
2069 796 1
2069 857 1
2069 1042 1
2069 1059 1
2069 1093 1
2069 1099 1
2069 1100 1
2069 1141 1
2069 1217 1
2069 1281 1
2069 1285 1
2069 1537 1
2069 1540 1
2069 1601 1
2069 1666 1
2069 2081 1
2069 2307 1
2069 2657 1
2069 2827 1
2069 3085 1
2069 3089 1
2069 3353 1
2069 3856 1
2070 3 1
2070 17 1
2070 33 1
2070 37 1
2070 81 1
2070 129 1
2070 267 1
2070 514 1
2070 817 1
2070 969 1
2070 1029 1
2070 3753 1
2071 5 1
2071 50 1
2071 67 1
2071 82 1
2071 130 1
2071 289 1
2071 1538 1
2071 2113 1
2072 1 1
2072 1033 1
2072 2953 1
2073 1 1
2073 2 1
2073 6 1
2073 11 1
2073 19 1
2073 25 1
2073 28 1
2073 35 1
2073 174 1
2073 181 1
2073 257 1
2073 258 1
2073 290 1
2073 307 1
2073 325 1
2073 419 1
2073 593 1
2073 613 1
2073 885 1
2073 1037 1
2073 1107 1
2073 1158 1
2073 1297 1
2073 1304 1
2073 1571 1
2073 1665 1
2073 1729 1
2073 2081 1
2073 2113 1
2073 2307 1
2073 2372 1
2073 3397 1
2073 3586 1
2074 73 1
2074 82 1
2074 129 1
2074 194 1
2074 417 1
2074 521 1
2074 811 1
2074 1353 1
2074 1473 1
2074 2053 1
2074 2193 1
2074 3585 1
2074 3717 1
2075 33 1
2075 65 1
2075 257 1
2075 258 1
2075 556 1
2075 1025 1
2075 1045 1
2075 1410 1
2075 2188 1
2075 2254 1
2076 42 1
2076 65 1
2076 146 1
2076 1106 1
2076 1157 1
2077 69 1
2077 129 1
2077 147 1
2077 163 1
2077 261 1
2077 345 1
2077 387 1
2077 547 1
2077 929 1
2077 1666 1
2077 1891 1
2077 2370 1
2078 81 1
2078 2089 1
2078 3905 1
2079 69 1
2079 178 1
2079 273 1
2079 481 1
2079 1223 1
2079 1293 1
2079 1314 1
2080 1089 1
2080 2338 1
2080 3618 1
2081 1 1
2081 2 1
2081 3 1
2081 5 1
2081 9 1
2081 15 1
2081 17 1
2081 18 1
2081 19 1
2081 21 1
2081 22 1
2081 25 1
2081 27 1
2081 28 1
2081 34 1
2081 37 1
2081 38 1
2081 40 1
2081 58 1
2081 65 1
2081 67 1
2081 69 1
2081 77 1
2081 81 1
2081 126 1
2081 129 1
2081 137 1
2081 161 1
2081 165 1
2081 173 1
2081 193 1
2081 225 1
2081 258 1
2081 261 1
2081 273 1
2081 297 1
2081 330 1
2081 385 1
2081 388 1
2081 401 1
2081 418 1
2081 513 1
2081 514 1
2081 517 1
2081 523 1
2081 525 1
2081 529 1
2081 531 1
2081 537 1
2081 538 1
2081 569 1
2081 578 1
2081 591 1
2081 595 1
2081 617 1
2081 641 1
2081 665 1
2081 685 1
2081 707 1
2081 723 1
2081 729 1
2081 769 1
2081 771 1
2081 781 1
2081 833 1
2081 849 1
2081 1027 1
2081 1029 1
2081 1031 1
2081 1033 1
2081 1041 1
2081 1042 1
2081 1050 1
2081 1057 1
2081 1058 1
2081 1059 1
2081 1073 1
2081 1153 1
2081 1154 1
2081 1169 1
2081 1185 1
2081 1281 1
2081 1285 1
2081 1302 1
2081 1318 1
2081 1409 1
2081 1538 1
2081 1665 1
2081 1667 1
2081 2049 1
2081 2051 1
2081 2069 1
2081 2073 1
2081 2089 1
2081 2182 1
2081 2193 1
2081 2203 1
2081 2205 1
2081 2308 1
2081 2377 1
2081 2497 1
2081 2602 1
2081 2696 1
2081 2819 1
2081 2881 1
2081 3017 1
2081 3076 1
2081 3113 1
2081 3202 1
2081 3395 1
2081 3415 1
2081 3605 1
2081 3905 1
2082 7 1
2082 19 1
2082 37 1
2082 66 1
2082 67 1
2082 134 1
2082 163 1
2082 333 1
2082 392 1
2082 545 1
2082 577 1
2082 771 1
2082 773 1
2082 1025 1
2082 1029 1
2082 1035 1
2082 1041 1
2082 1057 1
2082 1095 1
2082 1283 1
2082 1425 1
2082 1675 1
2082 2058 1
2082 2209 1
2082 2353 1
2082 2583 1
2082 3105 1
2082 3225 1
2083 4 1
2083 9 1
2083 14 1
2083 17 1
2083 33 1
2083 49 1
2083 66 1
2083 81 1
2083 101 1
2083 130 1
2083 136 1
2083 257 1
2083 282 1
2083 286 1
2083 346 1
2083 513 1
2083 519 1
2083 545 1
2083 577 1
2083 769 1
2083 1033 1
2083 1061 1
2083 1091 1
2083 1093 1
2083 1095 1
2083 1169 1
2083 1793 1
2083 2561 1
2083 2565 1
2083 3078 1
2083 3212 1
2083 3238 1
2084 2 1
2084 11 1
2084 23 1
2084 34 1
2084 59 1
2084 82 1
2084 294 1
2084 519 1
2084 593 1
2084 1029 1
2084 1039 1
2084 1057 1
2084 2857 1
2084 3333 1
2085 5 1
2085 17 1
2085 33 1
2085 35 1
2085 129 1
2085 137 1
2085 145 1
2085 165 1
2085 173 1
2085 257 1
2085 273 1
2085 323 1
2085 387 1
2085 465 1
2085 513 1
2085 521 1
2085 529 1
2085 897 1
2085 901 1
2085 909 1
2085 1034 1
2085 1039 1
2085 1042 1
2085 1101 1
2085 1107 1
2085 1665 1
2085 1793 1
2085 2050 1
2085 2198 1
2085 2209 1
2085 2386 1
2085 2577 1
2085 3089 1
2085 3329 1
2086 1 1
2086 5 1
2086 147 1
2086 873 1
2086 1027 1
2086 1481 1
2086 2209 1
2086 2707 1
2087 1 1
2087 22 1
2087 33 1
2087 105 1
2087 129 1
2087 137 1
2087 162 1
2087 193 1
2087 259 1
2087 883 1
2087 1025 1
2087 1153 1
2087 1157 1
2087 1313 1
2087 1346 1
2087 2115 1
2087 2177 1
2087 2708 1
2087 3171 1
2087 3265 1
2088 2 1
2088 81 1
2088 257 1
2088 337 1
2088 600 1
2088 1039 1
2088 2049 1
2089 1 1
2089 2 1
2089 5 1
2089 8 1
2089 9 1
2089 10 1
2089 12 1
2089 57 1
2089 113 1
2089 129 1
2089 193 1
2089 257 1
2089 259 1
2089 297 1
2089 404 1
2089 513 1
2089 517 1
2089 545 1
2089 705 1
2089 740 1
2089 833 1
2089 1049 1
2089 1089 1
2089 1347 1
2089 1730 1
2089 1761 1
2089 2049 1
2089 2066 1
2089 2078 1
2089 2081 1
2089 2306 1
2089 2641 1
2090 6 1
2090 7 1
2090 177 1
2090 305 1
2090 598 1
2090 649 1
2090 881 1
2090 1537 1
2090 2305 1
2090 3073 1
2091 18 1
2091 37 1
2091 306 1
2091 325 1
2091 1033 1
2091 1045 1
2091 1802 1
2091 2363 1
2091 2817 1
2092 257 1
2093 26 1
2093 345 1
2093 388 1
2093 401 1
2093 407 1
2093 513 1
2093 617 1
2093 785 1
2093 1026 1
2093 1090 1
2093 3073 1
2094 1030 1
2094 1089 1
2095 769 1
2095 809 1
2095 1345 1
2097 7 1
2097 9 1
2097 10 1
2097 12 1
2097 33 1
2097 69 1
2097 73 1
2097 81 1
2097 91 1
2097 133 1
2097 234 1
2097 260 1
2097 261 1
2097 321 1
2097 522 1
2097 532 1
2097 779 1
2097 939 1
2097 1046 1
2097 1055 1
2097 1059 1
2097 1077 1
2097 1097 1
2097 1100 1
2097 1159 1
2097 1442 1
2097 1873 1
2097 1985 1
2097 2050 1
2097 2051 1
2097 2053 1
2097 2057 1
2097 2225 1
2097 2625 1
2097 2885 1
2097 3138 1
2097 3557 1
2098 5 1
2098 41 1
2098 46 1
2098 76 1
2098 91 1
2098 257 1
2098 323 1
2098 542 1
2098 1025 1
2098 1091 1
2098 1546 1
2098 1585 1
2098 2338 1
2098 2823 1
2098 3845 1
2099 13 1
2099 67 1
2099 297 1
2099 386 1
2099 609 1
2099 1281 1
2099 1539 1
2100 217 1
2100 546 1
2100 902 1
2100 1093 1
2100 1164 1
2100 1321 1
2100 1355 1
2100 2179 1
2101 1 1
2101 12 1
2101 81 1
2101 229 1
2101 257 1
2101 346 1
2101 513 1
2101 524 1
2101 537 1
2101 544 1
2101 643 1
2101 769 1
2101 776 1
2101 1545 1
2101 1595 1
2101 1675 1
2101 2180 1
2101 2561 1
2101 3911 1
2102 921 1
2102 1777 1
2102 2057 1
2102 2650 1
2103 13 1
2103 66 1
2103 101 1
2103 265 1
2103 271 1
2103 641 1
2103 645 1
2103 1609 1
2103 2689 1
2104 545 1
2105 16 1
2105 29 1
2105 73 1
2105 129 1
2105 325 1
2105 513 1
2105 1283 1
2105 2055 1
2105 2561 1
2105 2722 1
2106 326 1
2106 403 1
2106 516 1
2106 609 1
2106 1475 1
2107 577 1
2107 1025 1
2107 1041 1
2107 1283 1
2109 65 1
2109 529 1
2109 610 1
2109 1033 1
2109 2049 1
2109 3081 1
2110 2049 1
2112 1281 1
2113 1 1
2113 2 1
2113 4 1
2113 12 1
2113 14 1
2113 16 1
2113 17 1
2113 19 1
2113 20 1
2113 22 1
2113 32 1
2113 33 1
2113 41 1
2113 46 1
2113 54 1
2113 57 1
2113 65 1
2113 66 1
2113 67 1
2113 73 1
2113 129 1
2113 130 1
2113 132 1
2113 133 1
2113 144 1
2113 145 1
2113 149 1
2113 151 1
2113 153 1
2113 161 1
2113 163 1
2113 165 1
2113 173 1
2113 178 1
2113 193 1
2113 248 1
2113 257 1
2113 258 1
2113 260 1
2113 261 1
2113 273 1
2113 298 1
2113 321 1
2113 330 1
2113 341 1
2113 343 1
2113 358 1
2113 386 1
2113 397 1
2113 401 1
2113 434 1
2113 517 1
2113 521 1
2113 529 1
2113 530 1
2113 545 1
2113 561 1
2113 581 1
2113 673 1
2113 674 1
2113 769 1
2113 801 1
2113 803 1
2113 805 1
2113 840 1
2113 1025 1
2113 1030 1
2113 1037 1
2113 1049 1
2113 1053 1
2113 1054 1
2113 1057 1
2113 1073 1
2113 1105 1
2113 1130 1
2113 1153 1
2113 1161 1
2113 1195 1
2113 1196 1
2113 1285 1
2113 1313 1
2113 1331 1
2113 1410 1
2113 1413 1
2113 1538 1
2113 1553 1
2113 1793 1
2113 1857 1
2113 1969 1
2113 2049 1
2113 2050 1
2113 2071 1
2113 2073 1
2113 2117 1
2113 2146 1
2113 2149 1
2113 2191 1
2113 2305 1
2113 2307 1
2113 2310 1
2113 2320 1
2113 2374 1
2113 2433 1
2113 2474 1
2113 2571 1
2113 3073 1
2113 3186 1
2113 3267 1
2113 3329 1
2113 3721 1
2114 3 1
2114 18 1
2114 25 1
2114 33 1
2114 34 1
2114 41 1
2114 44 1
2114 63 1
2114 122 1
2114 137 1
2114 145 1
2114 161 1
2114 165 1
2114 178 1
2114 179 1
2114 261 1
2114 277 1
2114 291 1
2114 323 1
2114 326 1
2114 377 1
2114 705 1
2114 725 1
2114 737 1
2114 897 1
2114 1037 1
2114 1089 1
2114 1090 1
2114 1177 1
2114 1411 1
2114 1545 1
2114 2049 1
2114 2057 1
2114 2305 1
2114 2569 1
2114 2587 1
2114 2821 1
2114 2850 1
2114 3599 1
2115 1 1
2115 3 1
2115 4 1
2115 12 1
2115 17 1
2115 33 1
2115 38 1
2115 42 1
2115 53 1
2115 61 1
2115 65 1
2115 81 1
2115 99 1
2115 129 1
2115 175 1
2115 258 1
2115 279 1
2115 290 1
2115 291 1
2115 321 1
2115 338 1
2115 1025 1
2115 1090 1
2115 1165 1
2115 1313 1
2115 1553 1
2115 2049 1
2115 2050 1
2115 2055 1
2115 2060 1
2115 2087 1
2115 2313 1
2115 2437 1
2115 2569 1
2115 2707 1
2116 5 1
2116 117 1
2116 161 1
2116 385 1
2116 521 1
2116 642 1
2116 1409 1
2116 1541 1
2116 2357 1
2116 2627 1
2117 1 1
2117 9 1
2117 33 1
2117 44 1
2117 69 1
2117 210 1
2117 281 1
2117 305 1
2117 513 1
2117 520 1
2117 522 1
2117 540 1
2117 565 1
2117 657 1
2117 706 1
2117 814 1
2117 1025 1
2117 1043 1
2117 1109 1
2117 1125 1
2117 1161 1
2117 1179 1
2117 1411 1
2117 1669 1
2117 1949 1
2117 2049 1
2117 2113 1
2117 2169 1
2117 2209 1
2117 2214 1
2117 2341 1
2117 2433 1
2117 2449 1
2117 2835 1
2117 2866 1
2117 3363 1
2117 3433 1
2118 1 1
2118 10 1
2118 25 1
2118 66 1
2118 164 1
2118 393 1
2118 577 1
2118 641 1
2118 3201 1
2119 2 1
2119 17 1
2119 19 1
2119 25 1
2119 29 1
2119 65 1
2119 179 1
2119 513 1
2119 2161 1
2119 2466 1
2119 3407 1
2120 459 1
2120 529 1
2120 1073 1
2120 1089 1
2120 1185 1
2120 3331 1
2121 1 1
2121 3 1
2121 5 1
2121 9 1
2121 10 1
2121 20 1
2121 65 1
2121 129 1
2121 145 1
2121 146 1
2121 259 1
2121 269 1
2121 305 1
2121 385 1
2121 513 1
2121 514 1
2121 521 1
2121 607 1
2121 643 1
2121 705 1
2121 769 1
2121 773 1
2121 775 1
2121 777 1
2121 900 1
2121 1025 1
2121 1034 1
2121 1035 1
2121 1066 1
2121 1281 1
2121 1292 1
2121 1346 1
2121 2052 1
2121 2053 1
2121 2129 1
2121 2372 1
2121 2434 1
2121 2561 1
2121 2609 1
2121 3745 1
2121 3761 1
2122 25 1
2122 266 1
2122 321 1
2122 323 1
2122 513 1
2122 514 1
2122 525 1
2122 1674 1
2122 2311 1
2123 17 1
2123 137 1
2123 330 1
2123 1025 1
2123 1031 1
2123 2057 1
2123 2312 1
2123 2439 1
2123 2442 1
2124 49 1
2124 55 1
2124 176 1
2124 1027 1
2124 1061 1
2125 1 1
2125 19 1
2125 44 1
2125 132 1
2125 321 1
2125 514 1
2125 610 1
2125 641 1
2125 1027 1
2125 2571 1
2126 2177 1
2126 2563 1
2127 1060 1
2128 2 1
2129 1 1
2129 3 1
2129 5 1
2129 9 1
2129 17 1
2129 33 1
2129 34 1
2129 36 1
2129 65 1
2129 257 1
2129 268 1
2129 273 1
2129 393 1
2129 417 1
2129 513 1
2129 515 1
2129 529 1
2129 559 1
2129 577 1
2129 609 1
2129 614 1
2129 674 1
2129 709 1
2129 738 1
2129 842 1
2129 1047 1
2129 1062 1
2129 1081 1
2129 1098 1
2129 1153 1
2129 1281 1
2129 1345 1
2129 1673 1
2129 1793 1
2129 1795 1
2129 2051 1
2129 2053 1
2129 2121 1
2129 2180 1
2129 2497 1
2129 2569 1
2129 2660 1
2129 3137 1
2129 3655 1
2130 21 1
2130 97 1
2130 196 1
2130 229 1
2130 354 1
2130 545 1
2130 772 1
2130 775 1
2130 1027 1
2130 1067 1
2130 1835 1
2130 2051 1
2130 2309 1
2130 2696 1
2130 2849 1
2130 3145 1
2130 3586 1
2131 18 1
2131 305 1
2131 397 1
2131 513 1
2131 1110 1
2131 1131 1
2131 1218 1
2131 1537 1
2131 1541 1
2131 1681 1
2131 1809 1
2131 2189 1
2131 3421 1
2131 3617 1
2132 545 1
2133 1 1
2133 355 1
2133 417 1
2133 675 1
2133 769 1
2133 770 1
2133 1041 1
2133 2437 1
2134 1 1
2134 97 1
2134 1668 1
2134 1701 1
2135 73 1
2135 1297 1
2136 513 1
2137 1 1
2137 3 1
2137 5 1
2137 17 1
2137 33 1
2137 49 1
2137 70 1
2137 393 1
2137 1027 1
2137 1089 1
2137 1537 1
2137 1670 1
2137 1793 1
2137 2178 1
2137 3205 1
2138 9 1
2138 259 1
2138 1026 1
2138 2583 1
2139 2 1
2139 1026 1
2140 3138 1
2141 133 1
2141 513 1
2141 514 1
2141 643 1
2141 1289 1
2142 20 1
2142 1031 1
2143 9 1
2143 3138 1
2144 513 1
2145 1 1
2145 2 1
2145 5 1
2145 10 1
2145 18 1
2145 39 1
2145 50 1
2145 65 1
2145 74 1
2145 101 1
2145 132 1
2145 134 1
2145 242 1
2145 257 1
2145 259 1
2145 265 1
2145 289 1
2145 322 1
2145 465 1
2145 517 1
2145 521 1
2145 577 1
2145 806 1
2145 833 1
2145 1025 1
2145 1029 1
2145 1032 1
2145 1037 1
2145 1161 1
2145 1289 1
2145 1290 1
2145 1425 1
2145 1730 1
2145 1746 1
2145 2050 1
2145 2177 1
2145 2245 1
2145 2438 1
2145 2787 1
2145 3201 1
2145 3622 1
2145 3669 1
2146 1 1
2146 9 1
2146 15 1
2146 129 1
2146 193 1
2146 513 1
2146 865 1
2146 1547 1
2146 2068 1
2146 2113 1
2146 2305 1
2146 2689 1
2146 2690 1
2146 3073 1
2146 3217 1
2146 3609 1
2147 1 1
2147 17 1
2147 19 1
2147 66 1
2147 141 1
2147 310 1
2147 513 1
2147 1165 1
2147 2049 1
2147 2610 1
2148 515 1
2148 529 1
2148 545 1
2149 1 1
2149 47 1
2149 61 1
2149 98 1
2149 141 1
2149 177 1
2149 194 1
2149 265 1
2149 605 1
2149 1181 1
2149 1353 1
2149 2059 1
2149 2113 1
2149 2821 1
2149 3201 1
2150 49 1
2150 515 1
2150 2651 1
2151 385 1
2153 259 1
2153 587 1
2153 1153 1
2153 1283 1
2153 1813 1
2153 2050 1
2153 2201 1
2153 3330 1
2153 3713 1
2154 67 1
2154 513 1
2154 3906 1
2155 9 1
2155 65 1
2155 1992 1
2157 1 1
2157 14 1
2157 515 1
2157 769 1
2157 1161 1
2157 3201 1
2158 2305 1
2161 1 1
2161 3 1
2161 45 1
2161 289 1
2161 1297 1
2161 1330 1
2161 2119 1
2161 2305 1
2162 5 1
2162 1241 1
2162 1571 1
2163 33 1
2163 769 1
2163 2257 1
2165 1060 1
2165 1281 1
2165 2053 1
2165 2281 1
2166 1031 1
2166 2049 1
2167 55 1
2169 19 1
2169 65 1
2169 2117 1
2169 3085 1
2169 3137 1
2169 3283 1
2171 1142 1
2176 527 1
2177 1 1
2177 3 1
2177 9 1
2177 11 1
2177 14 1
2177 17 1
2177 19 1
2177 20 1
2177 33 1
2177 39 1
2177 53 1
2177 54 1
2177 57 1
2177 65 1
2177 69 1
2177 73 1
2177 79 1
2177 83 1
2177 91 1
2177 97 1
2177 105 1
2177 129 1
2177 132 1
2177 137 1
2177 163 1
2177 203 1
2177 212 1
2177 257 1
2177 258 1
2177 265 1
2177 269 1
2177 275 1
2177 277 1
2177 281 1
2177 282 1
2177 300 1
2177 313 1
2177 385 1
2177 421 1
2177 476 1
2177 483 1
2177 515 1
2177 517 1
2177 522 1
2177 525 1
2177 532 1
2177 542 1
2177 546 1
2177 577 1
2177 579 1
2177 769 1
2177 770 1
2177 771 1
2177 777 1
2177 834 1
2177 862 1
2177 1025 1
2177 1026 1
2177 1027 1
2177 1029 1
2177 1042 1
2177 1045 1
2177 1057 1
2177 1063 1
2177 1065 1
2177 1074 1
2177 1089 1
2177 1091 1
2177 1106 1
2177 1113 1
2177 1159 1
2177 1170 1
2177 1203 1
2177 1251 1
2177 1457 1
2177 1537 1
2177 1565 1
2177 1569 1
2177 1602 1
2177 1635 1
2177 1698 1
2177 1809 1
2177 1866 1
2177 2049 1
2177 2050 1
2177 2068 1
2177 2087 1
2177 2126 1
2177 2145 1
2177 2183 1
2177 2201 1
2177 2305 1
2177 2309 1
2177 2323 1
2177 2342 1
2177 2371 1
2177 2497 1
2177 2577 1
2177 2634 1
2177 2689 1
2177 2721 1
2177 2849 1
2177 2946 1
2177 3282 1
2177 3377 1
2177 3394 1
2177 3717 1
2177 3857 1
2178 1 1
2178 3 1
2178 5 1
2178 6 1
2178 21 1
2178 25 1
2178 41 1
2178 65 1
2178 81 1
2178 89 1
2178 259 1
2178 261 1
2178 325 1
2178 515 1
2178 519 1
2178 562 1
2178 577 1
2178 643 1
2178 769 1
2178 1025 1
2178 1029 1
2178 1058 1
2178 1073 1
2178 1121 1
2178 1155 1
2178 1186 1
2178 1321 1
2178 1542 1
2178 2137 1
2178 2651 1
2178 3073 1
2178 3077 1
2179 1 1
2179 2 1
2179 6 1
2179 9 1
2179 10 1
2179 26 1
2179 41 1
2179 65 1
2179 66 1
2179 93 1
2179 117 1
2179 134 1
2179 229 1
2179 273 1
2179 418 1
2179 466 1
2179 513 1
2179 521 1
2179 645 1
2179 657 1
2179 1034 1
2179 1098 1
2179 1603 1
2179 1669 1
2179 1680 1
2179 1827 1
2179 2054 1
2179 2065 1
2179 2100 1
2179 2691 1
2179 2705 1
2179 3075 1
2179 3585 1
2179 3845 1
2180 6 1
2180 7 1
2180 17 1
2180 34 1
2180 67 1
2180 81 1
2180 261 1
2180 301 1
2180 553 1
2180 1031 1
2180 2101 1
2180 2129 1
2180 3364 1
2181 3 1
2181 17 1
2181 35 1
2181 49 1
2181 51 1
2181 65 1
2181 89 1
2181 129 1
2181 179 1
2181 267 1
2181 518 1
2181 521 1
2181 529 1
2181 530 1
2181 545 1
2181 562 1
2181 578 1
2181 1025 1
2181 1065 1
2181 1089 1
2181 1114 1
2181 1145 1
2181 1155 1
2181 1169 1
2181 1237 1
2181 1291 1
2181 1457 1
2181 1477 1
2181 1537 1
2181 1569 1
2181 1570 1
2181 1665 1
2181 1817 1
2181 2049 1
2181 2321 1
2181 2345 1
2181 3029 1
2181 3137 1
2182 17 1
2182 42 1
2182 73 1
2182 75 1
2182 514 1
2182 545 1
2182 546 1
2182 549 1
2182 554 1
2182 1553 1
2182 2050 1
2182 2081 1
2182 2533 1
2182 2611 1
2183 1 1
2183 33 1
2183 385 1
2183 1134 1
2183 1385 1
2183 1729 1
2183 2177 1
2183 2226 1
2183 2305 1
2183 2701 1
2184 13 1
2184 18 1
2185 1 1
2185 2 1
2185 19 1
2185 65 1
2185 66 1
2185 69 1
2185 71 1
2185 99 1
2185 133 1
2185 321 1
2185 355 1
2185 385 1
2185 387 1
2185 522 1
2185 548 1
2185 549 1
2185 1317 1
2185 1412 1
2185 1543 1
2185 1559 1
2185 1637 1
2185 2022 1
2185 2051 1
2185 2052 1
2185 2053 1
2185 2058 1
2185 2337 1
2185 2834 1
2185 3093 1
2185 3115 1
2185 3141 1
2185 3149 1
2185 3588 1
2186 1 1
2186 33 1
2186 37 1
2186 41 1
2186 67 1
2186 531 1
2186 646 1
2186 1025 1
2186 1153 1
2186 1169 1
2186 1233 1
2187 5 1
2187 49 1
2187 257 1
2187 266 1
2187 289 1
2187 586 1
2187 1105 1
2187 2051 1
2187 2561 1
2187 2603 1
2188 1 1
2188 195 1
2188 2050 1
2188 2075 1
2188 2566 1
2189 17 1
2189 65 1
2189 105 1
2189 149 1
2189 513 1
2189 1029 1
2189 1099 1
2189 1671 1
2189 1762 1
2189 2131 1
2189 2210 1
2189 2369 1
2190 1 1
2190 513 1
2190 577 1
2190 1297 1
2191 1 1
2191 10 1
2191 11 1
2191 2113 1
2191 2881 1
2191 3121 1
2192 9 1
2192 33 1
2192 68 1
2192 69 1
2193 1 1
2193 5 1
2193 6 1
2193 7 1
2193 9 1
2193 34 1
2193 91 1
2193 97 1
2193 196 1
2193 274 1
2193 297 1
2193 325 1
2193 385 1
2193 449 1
2193 513 1
2193 515 1
2193 517 1
2193 553 1
2193 1025 1
2193 1153 1
2193 2065 1
2193 2074 1
2193 2081 1
2193 2369 1
2193 2473 1
2193 2577 1
2193 2625 1
2193 2653 1
2193 2945 1
2193 3395 1
2193 3766 1
2194 7 1
2194 11 1
2194 39 1
2194 263 1
2194 578 1
2194 654 1
2194 1026 1
2194 1062 1
2194 1347 1
2194 2242 1
2194 3075 1
2194 3394 1
2195 3 1
2195 9 1
2195 34 1
2195 130 1
2195 513 1
2195 805 1
2195 1187 1
2195 1322 1
2195 3585 1
2196 267 1
2196 545 1
2196 769 1
2196 1025 1
2196 1043 1
2196 1677 1
2197 23 1
2197 50 1
2197 276 1
2197 329 1
2197 481 1
2197 1027 1
2197 1029 1
2197 1218 1
2197 1601 1
2198 129 1
2198 901 1
2198 1025 1
2198 1308 1
2198 2085 1
2198 2665 1
2199 1 1
2199 2053 1
2199 2593 1
2200 273 1
2200 1025 1
2201 3 1
2201 17 1
2201 18 1
2201 42 1
2201 257 1
2201 1138 1
2201 1285 1
2201 1571 1
2201 2050 1
2201 2153 1
2201 2177 1
2201 2281 1
2201 2842 1
2201 2890 1
2201 3185 1
2202 1 1
2202 4 1
2202 369 1
2202 581 1
2202 773 1
2203 1 1
2203 67 1
2203 83 1
2203 2081 1
2203 3210 1
2204 1217 1
2205 1 1
2205 173 1
2205 544 1
2205 1040 1
2205 1265 1
2205 2081 1
2206 1 1
2206 514 1
2206 1539 1
2206 1669 1
2209 1 1
2209 8 1
2209 9 1
2209 11 1
2209 33 1
2209 53 1
2209 65 1
2209 66 1
2209 69 1
2209 99 1
2209 132 1
2209 156 1
2209 162 1
2209 257 1
2209 263 1
2209 265 1
2209 266 1
2209 268 1
2209 313 1
2209 333 1
2209 419 1
2209 513 1
2209 547 1
2209 775 1
2209 881 1
2209 897 1
2209 1053 1
2209 1133 1
2209 1289 1
2209 1313 1
2209 1545 1
2209 1697 1
2209 2049 1
2209 2057 1
2209 2065 1
2209 2082 1
2209 2085 1
2209 2086 1
2209 2117 1
2209 2316 1
2209 2437 1
2209 2648 1
2209 2689 1
2209 3091 1
2209 3353 1
2210 2 1
2210 5 1
2210 70 1
2210 211 1
2210 513 1
2210 545 1
2210 553 1
2210 1046 1
2210 1199 1
2210 1537 1
2210 2189 1
2210 2637 1
2210 2891 1
2210 3081 1
2211 85 1
2211 215 1
2211 265 1
2211 326 1
2211 1028 1
2211 1283 1
2212 547 1
2213 5 1
2213 11 1
2213 25 1
2213 194 1
2213 225 1
2213 257 1
2213 291 1
2213 1025 1
2213 1121 1
2213 1283 1
2213 1306 1
2213 1825 1
2213 2057 1
2213 2563 1
2214 516 1
2214 1025 1
2214 1027 1
2214 2117 1
2215 641 1
2215 785 1
2215 1153 1
2215 1345 1
2215 1437 1
2215 2821 1
2216 6 1
2217 33 1
2217 259 1
2217 273 1
2217 275 1
2217 787 1
2217 1026 1
2217 1541 1
2217 1684 1
2218 21 1
2219 5 1
2219 322 1
2219 517 1
2221 433 1
2221 513 1
2221 793 1
2221 1795 1
2222 2581 1
2225 1 1
2225 11 1
2225 15 1
2225 17 1
2225 37 1
2225 66 1
2225 73 1
2225 131 1
2225 154 1
2225 258 1
2225 339 1
2225 677 1
2225 751 1
2225 801 1
2225 802 1
2225 1157 1
2225 1189 1
2225 1637 1
2225 2049 1
2225 2097 1
2225 2821 1
2225 3165 1
2226 257 1
2226 565 1
2226 1793 1
2226 2183 1
2226 2434 1
2226 2561 1
2226 3091 1
2227 143 1
2227 297 1
2227 551 1
2227 578 1
2227 810 1
2227 2065 1
2229 27 1
2229 585 1
2232 1 1
2233 2 1
2233 897 1
2233 2049 1
2233 3345 1
2236 1 1
2236 40 1
2236 1541 1
2237 1025 1
2239 1239 1
2241 1 1
2241 16 1
2241 17 1
2241 34 1
2241 51 1
2241 103 1
2241 147 1
2241 209 1
2241 257 1
2241 271 1
2241 513 1
2241 517 1
2241 769 1
2241 773 1
2241 1053 1
2241 1092 1
2241 1093 1
2241 1123 1
2241 1573 1
2241 2053 1
2241 2054 1
2241 2322 1
2241 3335 1
2241 3613 1
2242 11 1
2242 155 1
2242 305 1
2242 357 1
2242 565 1
2242 629 1
2242 705 1
2242 1031 1
2242 2194 1
2243 9 1
2243 13 1
2243 113 1
2243 257 1
2243 293 1
2243 311 1
2243 385 1
2243 537 1
2243 1281 1
2243 1283 1
2243 2061 1
2243 2065 1
2243 2369 1
2244 42 1
2244 73 1
2244 313 1
2244 517 1
2244 769 1
2244 1409 1
2245 1 1
2245 18 1
2245 33 1
2245 267 1
2245 282 1
2245 283 1
2245 299 1
2245 1073 1
2245 1169 1
2245 1537 1
2245 1601 1
2245 2053 1
2245 2145 1
2247 1 1
2247 514 1
2247 1105 1
2247 2369 1
2247 3073 1
2249 1 1
2249 3 1
2249 45 1
2249 273 1
2249 372 1
2249 513 1
2249 522 1
2249 713 1
2249 805 1
2249 1171 1
2249 1329 1
2249 1412 1
2249 2065 1
2249 2313 1
2250 25 1
2250 82 1
2250 257 1
2250 1043 1
2250 1226 1
2252 135 1
2253 1282 1
2253 2066 1
2254 131 1
2254 2075 1
2255 14 1
2256 1 1
2256 257 1
2257 97 1
2257 161 1
2257 193 1
2257 289 1
2257 769 1
2257 1282 1
2257 1857 1
2257 2052 1
2257 2163 1
2257 2710 1
2258 9 1
2258 17 1
2258 66 1
2258 299 1
2259 36 1
2259 161 1
2260 1101 1
2261 273 1
2265 2 1
2265 3 1
2265 33 1
2265 67 1
2265 83 1
2265 329 1
2265 2321 1
2265 2434 1
2265 3121 1
2266 523 1
2266 1650 1
2267 288 1
2269 202 1
2269 2056 1
2271 1 1
2273 1 1
2273 5 1
2273 9 1
2273 65 1
2273 82 1
2273 147 1
2273 193 1
2273 194 1
2273 209 1
2273 260 1
2273 307 1
2273 386 1
2273 643 1
2273 1050 1
2273 1090 1
2273 1281 1
2273 2389 1
2273 3105 1
2273 3329 1
2274 1 1
2274 9 1
2274 2310 1
2275 41 1
2275 325 1
2275 1037 1
2277 33 1
2277 1025 1
2277 1027 1
2277 1357 1
2277 2853 1
2278 977 1
2281 2 1
2281 1186 1
2281 2049 1
2281 2165 1
2281 2201 1
2282 2 1
2283 1 1
2283 5 1
2283 81 1
2285 33 1
2285 1545 1
2289 38 1
2290 3 1
2291 97 1
2293 545 1
2293 771 1
2295 785 1
2297 27 1
2297 33 1
2297 65 1
2299 3075 1
2301 3073 1
2305 1 1
2305 3 1
2305 4 1
2305 6 1
2305 10 1
2305 11 1
2305 13 1
2305 21 1
2305 22 1
2305 24 1
2305 34 1
2305 37 1
2305 39 1
2305 40 1
2305 41 1
2305 42 1
2305 49 1
2305 65 1
2305 69 1
2305 70 1
2305 74 1
2305 77 1
2305 82 1
2305 84 1
2305 97 1
2305 98 1
2305 102 1
2305 106 1
2305 108 1
2305 118 1
2305 129 1
2305 131 1
2305 139 1
2305 145 1
2305 146 1
2305 165 1
2305 169 1
2305 215 1
2305 225 1
2305 257 1
2305 259 1
2305 261 1
2305 274 1
2305 279 1
2305 290 1
2305 299 1
2305 324 1
2305 327 1
2305 353 1
2305 369 1
2305 387 1
2305 405 1
2305 498 1
2305 513 1
2305 514 1
2305 515 1
2305 520 1
2305 523 1
2305 537 1
2305 545 1
2305 547 1
2305 577 1
2305 578 1
2305 579 1
2305 611 1
2305 642 1
2305 649 1
2305 679 1
2305 707 1
2305 722 1
2305 785 1
2305 837 1
2305 839 1
2305 1026 1
2305 1028 1
2305 1057 1
2305 1154 1
2305 1156 1
2305 1217 1
2305 1228 1
2305 1281 1
2305 1297 1
2305 1545 1
2305 1548 1
2305 1595 1
2305 2050 1
2305 2054 1
2305 2062 1
2305 2063 1
2305 2065 1
2305 2090 1
2305 2113 1
2305 2114 1
2305 2146 1
2305 2158 1
2305 2161 1
2305 2177 1
2305 2183 1
2305 2323 1
2305 2370 1
2305 2673 1
2305 3073 1
2305 3121 1
2305 3202 1
2305 3533 1
2306 1 1
2306 3 1
2306 6 1
2306 7 1
2306 17 1
2306 51 1
2306 56 1
2306 65 1
2306 69 1
2306 75 1
2306 129 1
2306 131 1
2306 145 1
2306 258 1
2306 259 1
2306 262 1
2306 275 1
2306 291 1
2306 321 1
2306 417 1
2306 513 1
2306 516 1
2306 522 1
2306 526 1
2306 710 1
2306 771 1
2306 780 1
2306 1030 1
2306 1034 1
2306 1050 1
2306 1091 1
2306 1137 1
2306 1159 1
2306 1282 1
2306 1289 1
2306 1302 1
2306 1601 1
2306 2049 1
2306 2089 1
2306 2577 1
2306 3073 1
2307 3 1
2307 17 1
2307 25 1
2307 35 1
2307 81 1
2307 233 1
2307 249 1
2307 257 1
2307 277 1
2307 289 1
2307 305 1
2307 308 1
2307 321 1
2307 389 1
2307 415 1
2307 515 1
2307 537 1
2307 609 1
2307 773 1
2307 801 1
2307 1025 1
2307 1041 1
2307 1064 1
2307 1186 1
2307 1286 1
2307 1537 1
2307 1709 1
2307 1921 1
2307 2049 1
2307 2058 1
2307 2069 1
2307 2073 1
2307 2113 1
2307 2561 1
2307 2625 1
2307 3077 1
2307 3079 1
2307 3141 1
2308 5 1
2308 41 1
2308 67 1
2308 193 1
2308 393 1
2308 1030 1
2308 1345 1
2308 2081 1
2308 3074 1
2309 1 1
2309 3 1
2309 10 1
2309 33 1
2309 51 1
2309 89 1
2309 99 1
2309 130 1
2309 149 1
2309 170 1
2309 201 1
2309 299 1
2309 300 1
2309 354 1
2309 546 1
2309 547 1
2309 578 1
2309 609 1
2309 801 1
2309 1025 1
2309 1037 1
2309 1100 1
2309 1338 1
2309 1539 1
2309 1553 1
2309 2053 1
2309 2130 1
2309 2177 1
2309 2569 1
2309 2657 1
2309 2740 1
2309 3081 1
2310 149 1
2310 515 1
2310 532 1
2310 542 1
2310 651 1
2310 673 1
2310 778 1
2310 1025 1
2310 1057 1
2310 1289 1
2310 1546 1
2310 1687 1
2310 1801 1
2310 2057 1
2310 2113 1
2310 2274 1
2310 2339 1
2310 2341 1
2310 3083 1
2310 3459 1
2311 1 1
2311 259 1
2311 609 1
2311 1041 1
2311 1258 1
2311 1793 1
2311 2055 1
2311 2057 1
2311 2122 1
2311 2433 1
2312 529 1
2312 1171 1
2312 2123 1
2313 5 1
2313 11 1
2313 18 1
2313 29 1
2313 37 1
2313 53 1
2313 67 1
2313 81 1
2313 146 1
2313 195 1
2313 257 1
2313 259 1
2313 281 1
2313 329 1
2313 354 1
2313 531 1
2313 581 1
2313 641 1
2313 643 1
2313 777 1
2313 1025 1
2313 1058 1
2313 1401 1
2313 1665 1
2313 1667 1
2313 2049 1
2313 2050 1
2313 2057 1
2313 2115 1
2313 2249 1
2313 3078 1
2313 3210 1
2313 3227 1
2313 3374 1
2313 3875 1
2313 3937 1
2314 1 1
2314 3 1
2314 5 1
2314 9 1
2314 33 1
2314 34 1
2314 129 1
2314 1333 1
2314 3145 1
2315 129 1
2315 135 1
2315 1073 1
2315 1161 1
2315 1827 1
2315 3089 1
2315 3331 1
2316 1 1
2316 2209 1
2317 9 1
2317 17 1
2317 137 1
2317 291 1
2317 337 1
2317 485 1
2317 513 1
2317 531 1
2317 1025 1
2317 1796 1
2317 2433 1
2318 529 1
2318 2561 1
2319 2 1
2319 1465 1
2319 3114 1
2320 129 1
2320 2113 1
2321 1 1
2321 2 1
2321 3 1
2321 17 1
2321 19 1
2321 33 1
2321 74 1
2321 97 1
2321 121 1
2321 140 1
2321 145 1
2321 153 1
2321 161 1
2321 165 1
2321 199 1
2321 257 1
2321 261 1
2321 272 1
2321 513 1
2321 514 1
2321 651 1
2321 723 1
2321 774 1
2321 1033 1
2321 1041 1
2321 1050 1
2321 1137 1
2321 1157 1
2321 1203 1
2321 1217 1
2321 1281 1
2321 1345 1
2321 1542 1
2321 1553 1
2321 2049 1
2321 2181 1
2321 2265 1
2321 2851 1
2321 3073 1
2321 3137 1
2321 3154 1
2321 3189 1
2322 2 1
2322 73 1
2322 79 1
2322 130 1
2322 200 1
2322 515 1
2322 642 1
2322 1037 1
2322 1290 1
2322 1537 1
2322 2241 1
2322 2378 1
2322 3082 1
2323 17 1
2323 35 1
2323 129 1
2323 164 1
2323 265 1
2323 647 1
2323 867 1
2323 1098 1
2323 1217 1
2323 1222 1
2323 1453 1
2323 1627 1
2323 2177 1
2323 2305 1
2324 14 1
2324 385 1
2324 1029 1
2324 1031 1
2324 2339 1
2324 2393 1
2325 1 1
2325 37 1
2325 45 1
2325 51 1
2325 169 1
2325 226 1
2325 257 1
2325 516 1
2325 905 1
2325 1031 1
2325 1041 1
2325 1067 1
2325 1113 1
2326 17 1
2326 522 1
2326 617 1
2327 129 1
2327 213 1
2327 1033 1
2328 2561 1
2329 21 1
2329 258 1
2329 711 1
2329 802 1
2329 1283 1
2329 2049 1
2329 2058 1
2331 65 1
2331 772 1
2333 49 1
2333 555 1
2333 1221 1
2335 90 1
2337 1 1
2337 2 1
2337 6 1
2337 7 1
2337 11 1
2337 13 1
2337 17 1
2337 18 1
2337 65 1
2337 68 1
2337 72 1
2337 81 1
2337 105 1
2337 113 1
2337 130 1
2337 137 1
2337 153 1
2337 162 1
2337 273 1
2337 281 1
2337 295 1
2337 322 1
2337 417 1
2337 513 1
2337 577 1
2337 641 1
2337 897 1
2337 1025 1
2337 1034 1
2337 1041 1
2337 1044 1
2337 1122 1
2337 1170 1
2337 1409 1
2337 1697 1
2337 1858 1
2337 2053 1
2337 2058 1
2337 2067 1
2337 2185 1
2337 2693 1
2337 2850 1
2337 3207 1
2337 3377 1
2337 3713 1
2338 193 1
2338 257 1
2338 266 1
2338 331 1
2338 369 1
2338 521 1
2338 522 1
2338 577 1
2338 593 1
2338 611 1
2338 1025 1
2338 1129 1
2338 1157 1
2338 2080 1
2338 2098 1
2338 2657 1
2338 3301 1
2339 2 1
2339 17 1
2339 33 1
2339 37 1
2339 73 1
2339 257 1
2339 267 1
2339 385 1
2339 514 1
2339 590 1
2339 835 1
2339 2059 1
2339 2310 1
2339 2324 1
2340 2 1
2340 6 1
2340 134 1
2340 1093 1
2340 1097 1
2341 4 1
2341 25 1
2341 1025 1
2341 1281 1
2341 1593 1
2341 2054 1
2341 2055 1
2341 2065 1
2341 2117 1
2341 2310 1
2341 2714 1
2342 97 1
2342 641 1
2342 2177 1
2343 10 1
2343 163 1
2343 2052 1
2343 2057 1
2343 2629 1
2343 3234 1
2344 572 1
2344 963 1
2344 1157 1
2345 113 1
2345 145 1
2345 169 1
2345 257 1
2345 1105 1
2345 1458 1
2345 1541 1
2345 2181 1
2345 2817 1
2345 3077 1
2346 9 1
2346 99 1
2347 5 1
2349 262 1
2353 146 1
2353 263 1
2353 545 1
2353 1090 1
2353 1924 1
2353 2082 1
2353 2689 1
2354 81 1
2354 145 1
2354 1161 1
2354 3331 1
2355 5 1
2355 17 1
2355 21 1
2355 25 1
2355 50 1
2355 73 1
2355 340 1
2355 697 1
2356 65 1
2356 2057 1
2357 1025 1
2357 1571 1
2357 2049 1
2357 2116 1
2357 3205 1
2359 265 1
2361 133 1
2361 265 1
2361 584 1
2361 1071 1
2361 2054 1
2361 2065 1
2362 2 1
2363 129 1
2363 2091 1
2365 33 1
2365 420 1
2366 786 1
2369 1 1
2369 5 1
2369 6 1
2369 9 1
2369 10 1
2369 11 1
2369 33 1
2369 34 1
2369 35 1
2369 46 1
2369 50 1
2369 58 1
2369 66 1
2369 97 1
2369 114 1
2369 163 1
2369 305 1
2369 387 1
2369 527 1
2369 585 1
2369 787 1
2369 1030 1
2369 1033 1
2369 1089 1
2369 1287 1
2369 1347 1
2369 2049 1
2369 2189 1
2369 2193 1
2369 2243 1
2369 2247 1
2369 2565 1
2369 2593 1
2369 2945 1
2369 3091 1
2369 3105 1
2370 46 1
2370 79 1
2370 121 1
2370 300 1
2370 343 1
2370 528 1
2370 1025 1
2370 1154 1
2370 1665 1
2370 2049 1
2370 2077 1
2370 2305 1
2370 3097 1
2371 1 1
2371 2 1
2371 17 1
2371 548 1
2371 1603 1
2371 2057 1
2371 2177 1
2371 2754 1
2372 130 1
2372 139 1
2372 515 1
2372 1393 1
2372 2073 1
2372 2121 1
2373 17 1
2373 58 1
2373 257 1
2373 514 1
2373 739 1
2373 769 1
2373 1027 1
2373 1033 1
2373 1057 1
2374 10 1
2374 53 1
2374 76 1
2374 257 1
2374 1025 1
2374 2113 1
2374 3138 1
2375 1 1
2375 17 1
2375 166 1
2375 1173 1
2375 3074 1
2376 3 1
2376 525 1
2376 577 1
2377 1 1
2377 33 1
2377 50 1
2377 137 1
2377 145 1
2377 241 1
2377 291 1
2377 294 1
2377 321 1
2377 581 1
2377 1029 1
2377 1034 1
2377 1183 1
2377 2081 1
2377 3075 1
2377 3281 1
2377 3593 1
2378 7 1
2378 35 1
2378 266 1
2378 2322 1
2378 3089 1
2379 1 1
2379 131 1
2379 257 1
2379 1165 1
2379 3668 1
2381 1187 1
2381 3343 1
2383 36 1
2385 1 1
2385 9 1
2385 43 1
2385 67 1
2385 129 1
2385 145 1
2385 513 1
2385 553 1
2385 725 1
2385 1030 1
2385 1065 1
2385 1122 1
2385 2543 1
2385 2565 1
2386 225 1
2386 641 1
2386 2050 1
2386 2085 1
2387 2 1
2387 9 1
2387 130 1
2387 557 1
2387 1159 1
2387 1237 1
2387 1281 1
2387 3145 1
2389 73 1
2389 145 1
2389 641 1
2389 813 1
2389 1027 1
2389 2273 1
2389 3617 1
2390 1329 1
2391 308 1
2393 2 1
2393 2324 1
2395 2050 1
2401 1 1
2401 3 1
2401 25 1
2401 66 1
2401 130 1
2401 268 1
2401 524 1
2401 528 1
2401 579 1
2401 769 1
2401 1047 1
2401 1185 1
2402 3 1
2402 1608 1
2404 77 1
2405 1129 1
2406 1110 1
2407 1537 1
2409 141 1
2409 1793 1
2410 3585 1
2413 133 1
2417 39 1
2417 486 1
2417 1282 1
2417 2049 1
2418 289 1
2420 1602 1
2421 264 1
2423 132 1
2425 1027 1
2425 1041 1
2428 130 1
2433 1 1
2433 2 1
2433 5 1
2433 11 1
2433 18 1
2433 33 1
2433 49 1
2433 65 1
2433 73 1
2433 84 1
2433 113 1
2433 134 1
2433 143 1
2433 161 1
2433 258 1
2433 267 1
2433 401 1
2433 516 1
2433 529 1
2433 537 1
2433 561 1
2433 674 1
2433 919 1
2433 1025 1
2433 1062 1
2433 1185 1
2433 1269 1
2433 1604 1
2433 1609 1
2433 1675 1
2433 2113 1
2433 2117 1
2433 2311 1
2433 2317 1
2433 2497 1
2433 2853 1
2433 3078 1
2433 3112 1
2433 3349 1
2434 1 1
2434 331 1
2434 581 1
2434 721 1
2434 1025 1
2434 1029 1
2434 1035 1
2434 1081 1
2434 2121 1
2434 2226 1
2434 2265 1
2434 2598 1
2434 3139 1
2434 3145 1
2435 1 1
2435 2 1
2435 69 1
2435 209 1
2435 785 1
2435 965 1
2435 1025 1
2435 2050 1
2435 2757 1
2435 3587 1
2436 65 1
2436 129 1
2436 605 1
2436 780 1
2436 1034 1
2437 87 1
2437 153 1
2437 257 1
2437 281 1
2437 578 1
2437 585 1
2437 995 1
2437 1025 1
2437 1029 1
2437 1121 1
2437 2115 1
2437 2133 1
2437 2209 1
2438 42 1
2438 305 1
2438 2145 1
2438 2579 1
2438 3080 1
2439 1169 1
2439 2123 1
2441 1 1
2441 3 1
2441 5 1
2441 9 1
2441 65 1
2441 258 1
2441 554 1
2441 1173 1
2441 1185 1
2441 1282 1
2441 1581 1
2441 2884 1
2442 65 1
2442 2123 1
2442 3331 1
2443 1031 1
2443 2049 1
2443 2060 1
2445 10 1
2445 22 1
2445 65 1
2445 129 1
2445 1033 1
2445 2562 1
2446 1 1
2446 266 1
2446 660 1
2446 791 1
2446 2051 1
2447 1058 1
2449 1 1
2449 11 1
2449 52 1
2449 75 1
2449 99 1
2449 147 1
2449 211 1
2449 514 1
2449 519 1
2449 530 1
2449 545 1
2449 681 1
2449 1101 1
2449 2117 1
2449 2599 1
2449 3593 1
2450 3 1
2450 1633 1
2450 2049 1
2451 289 1
2451 513 1
2451 549 1
2451 586 1
2451 1101 1
2451 3822 1
2452 3402 1
2453 130 1
2453 274 1
2453 289 1
2453 2062 1
2454 131 1
2454 673 1
2456 593 1
2457 513 1
2457 1610 1
2457 2629 1
2458 69 1
2458 901 1
2458 1163 1
2461 1034 1
2465 1 1
2465 3 1
2465 13 1
2465 19 1
2465 65 1
2465 102 1
2465 1025 1
2465 1093 1
2465 1418 1
2465 2057 1
2466 35 1
2466 2119 1
2467 74 1
2467 537 1
2467 1061 1
2467 1089 1
2468 13 1
2468 546 1
2468 657 1
2469 2753 1
2470 21 1
2471 2 1
2471 9 1
2471 2053 1
2473 10 1
2473 49 1
2473 161 1
2473 517 1
2473 1570 1
2473 2051 1
2473 2193 1
2474 39 1
2474 89 1
2474 2113 1
2477 289 1
2481 35 1
2481 513 1
2481 517 1
2481 1605 1
2487 1603 1
2489 630 1
2492 3165 1
2497 34 1
2497 36 1
2497 98 1
2497 147 1
2497 313 1
2497 1545 1
2497 2081 1
2497 2129 1
2497 2177 1
2497 2433 1
2497 3079 1
2499 789 1
2499 1057 1
2499 1073 1
2499 2050 1
2500 1 1
2501 1 1
2501 257 1
2501 833 1
2502 5 1
2503 133 1
2505 73 1
2505 98 1
2505 513 1
2505 2791 1
2506 49 1
2506 87 1
2507 3077 1
2509 36 1
2509 340 1
2511 138 1
2513 2 1
2513 129 1
2513 642 1
2514 1316 1
2514 3073 1
2515 15 1
2515 2571 1
2517 130 1
2517 1793 1
2519 9 1
2521 2 1
2521 9 1
2521 81 1
2527 1 1
2529 65 1
2529 337 1
2530 1028 1
2531 1622 1
2533 2182 1
2538 3107 1
2539 2051 1
2543 2385 1
2545 258 1
2553 258 1
2553 584 1
2561 1 1
2561 2 1
2561 3 1
2561 9 1
2561 11 1
2561 13 1
2561 17 1
2561 21 1
2561 25 1
2561 33 1
2561 36 1
2561 45 1
2561 67 1
2561 103 1
2561 129 1
2561 134 1
2561 137 1
2561 138 1
2561 153 1
2561 163 1
2561 193 1
2561 194 1
2561 201 1
2561 209 1
2561 225 1
2561 229 1
2561 257 1
2561 261 1
2561 277 1
2561 280 1
2561 349 1
2561 363 1
2561 388 1
2561 451 1
2561 513 1
2561 514 1
2561 515 1
2561 518 1
2561 525 1
2561 565 1
2561 579 1
2561 583 1
2561 625 1
2561 642 1
2561 651 1
2561 657 1
2561 788 1
2561 805 1
2561 1025 1
2561 1044 1
2561 1057 1
2561 1115 1
2561 1153 1
2561 1162 1
2561 1175 1
2561 1233 1
2561 1329 1
2561 1345 1
2561 1350 1
2561 1366 1
2561 1409 1
2561 1411 1
2561 1427 1
2561 1563 1
2561 1589 1
2561 1601 1
2561 1649 1
2561 1795 1
2561 1810 1
2561 1811 1
2561 2050 1
2561 2051 1
2561 2057 1
2561 2083 1
2561 2101 1
2561 2105 1
2561 2121 1
2561 2187 1
2561 2226 1
2561 2307 1
2561 2318 1
2561 2328 1
2561 2597 1
2561 2713 1
2561 2817 1
2561 3137 1
2561 3143 1
2561 3201 1
2561 3206 1
2561 3457 1
2561 3590 1
2561 3717 1
2561 3747 1
2562 1 1
2562 5 1
2562 20 1
2562 33 1
2562 35 1
2562 75 1
2562 90 1
2562 97 1
2562 101 1
2562 105 1
2562 259 1
2562 263 1
2562 267 1
2562 298 1
2562 321 1
2562 330 1
2562 341 1
2562 521 1
2562 525 1
2562 641 1
2562 642 1
2562 651 1
2562 770 1
2562 1025 1
2562 1031 1
2562 1077 1
2562 1191 1
2562 2065 1
2562 2445 1
2562 2587 1
2562 2697 1
2562 2753 1
2562 3540 1
2563 1 1
2563 2 1
2563 9 1
2563 11 1
2563 17 1
2563 37 1
2563 50 1
2563 66 1
2563 81 1
2563 97 1
2563 163 1
2563 199 1
2563 265 1
2563 282 1
2563 293 1
2563 338 1
2563 345 1
2563 450 1
2563 513 1
2563 578 1
2563 673 1
2563 938 1
2563 1027 1
2563 1031 1
2563 1153 1
2563 1345 1
2563 1409 1
2563 1441 1
2563 1537 1
2563 1541 1
2563 1571 1
2563 1793 1
2563 1861 1
2563 1985 1
2563 2049 1
2563 2126 1
2563 2213 1
2563 2565 1
2563 3073 1
2563 3105 1
2563 3681 1
2564 5 1
2564 13 1
2564 17 1
2564 19 1
2564 69 1
2564 81 1
2564 97 1
2564 145 1
2564 769 1
2565 1 1
2565 6 1
2565 9 1
2565 10 1
2565 17 1
2565 25 1
2565 41 1
2565 69 1
2565 70 1
2565 130 1
2565 146 1
2565 147 1
2565 155 1
2565 177 1
2565 193 1
2565 281 1
2565 297 1
2565 342 1
2565 385 1
2565 452 1
2565 1025 1
2565 1027 1
2565 1031 1
2565 1033 1
2565 1041 1
2565 1050 1
2565 1313 1
2565 1489 1
2565 1553 1
2565 1729 1
2565 1859 1
2565 2050 1
2565 2059 1
2565 2083 1
2565 2369 1
2565 2385 1
2565 2563 1
2565 2690 1
2566 1 1
2566 37 1
2566 65 1
2566 85 1
2566 130 1
2566 273 1
2566 645 1
2566 2188 1
2566 3115 1
2567 1 1
2567 83 1
2567 139 1
2567 145 1
2567 275 1
2567 298 1
2567 417 1
2568 322 1
2568 801 1
2569 3 1
2569 21 1
2569 29 1
2569 43 1
2569 57 1
2569 65 1
2569 66 1
2569 81 1
2569 163 1
2569 257 1
2569 259 1
2569 321 1
2569 345 1
2569 513 1
2569 547 1
2569 548 1
2569 557 1
2569 605 1
2569 645 1
2569 721 1
2569 769 1
2569 770 1
2569 1057 1
2569 1153 1
2569 1458 1
2569 1542 1
2569 2049 1
2569 2114 1
2569 2115 1
2569 2129 1
2569 2309 1
2569 2669 1
2569 2699 1
2569 3137 1
2569 3593 1
2569 3905 1
2570 1 1
2570 36 1
2570 161 1
2570 389 1
2570 579 1
2570 1313 1
2570 2051 1
2570 3089 1
2571 1 1
2571 627 1
2571 696 1
2571 1029 1
2571 1347 1
2571 2113 1
2571 2125 1
2571 2515 1
2572 290 1
2572 1121 1
2572 2057 1
2573 1 1
2573 13 1
2573 65 1
2573 228 1
2573 257 1
2573 483 1
2573 565 1
2573 1027 1
2573 1538 1
2573 1846 1
2574 1 1
2574 265 1
2574 322 1
2574 2057 1
2575 66 1
2575 101 1
2575 513 1
2575 1633 1
2575 2058 1
2575 3617 1
2577 1 1
2577 2 1
2577 4 1
2577 14 1
2577 33 1
2577 36 1
2577 79 1
2577 129 1
2577 193 1
2577 257 1
2577 273 1
2577 647 1
2577 688 1
2577 836 1
2577 1025 1
2577 1029 1
2577 1031 1
2577 1050 1
2577 1089 1
2577 1105 1
2577 1141 1
2577 1156 1
2577 1545 1
2577 1551 1
2577 2085 1
2577 2177 1
2577 2193 1
2577 2306 1
2577 3082 1
2578 3 1
2578 13 1
2578 587 1
2578 3243 1
2579 1 1
2579 2 1
2579 194 1
2579 229 1
2579 281 1
2579 789 1
2579 818 1
2579 1154 1
2579 2049 1
2579 2438 1
2580 642 1
2580 1053 1
2580 2057 1
2581 1 1
2581 4 1
2581 13 1
2581 35 1
2581 66 1
2581 197 1
2581 201 1
2581 265 1
2581 321 1
2581 1281 1
2581 1354 1
2581 1618 1
2581 2049 1
2581 2222 1
2582 771 1
2582 2065 1
2583 29 1
2583 97 1
2583 146 1
2583 185 1
2583 2082 1
2583 2138 1
2584 3 1
2584 1251 1
2585 2 1
2585 67 1
2585 97 1
2585 278 1
2585 387 1
2585 521 1
2585 1125 1
2585 1809 1
2585 2051 1
2585 3089 1
2585 3272 1
2586 49 1
2586 517 1
2586 2065 1
2587 2114 1
2587 2562 1
2589 1430 1
2589 2049 1
2590 41 1
2591 2625 1
2593 1 1
2593 3 1
2593 5 1
2593 8 1
2593 17 1
2593 34 1
2593 35 1
2593 65 1
2593 93 1
2593 257 1
2593 259 1
2593 373 1
2593 386 1
2593 401 1
2593 452 1
2593 513 1
2593 673 1
2593 775 1
2593 1025 1
2593 1026 1
2593 1034 1
2593 1066 1
2593 1069 1
2593 1089 1
2593 1156 1
2593 1281 1
2593 1605 1
2593 1634 1
2593 2199 1
2593 2369 1
2593 2945 1
2593 3617 1
2594 1 1
2594 2 1
2594 4 1
2594 25 1
2594 97 1
2594 263 1
2594 265 1
2594 273 1
2594 297 1
2594 484 1
2594 1046 1
2594 1069 1
2594 2050 1
2594 3147 1
2594 3605 1
2595 17 1
2595 18 1
2595 51 1
2595 70 1
2595 387 1
2595 961 1
2595 1283 1
2595 1329 1
2596 643 1
2597 1 1
2597 17 1
2597 21 1
2597 129 1
2597 134 1
2597 226 1
2597 267 1
2597 2561 1
2597 3045 1
2598 99 1
2598 2434 1
2599 22 1
2599 2449 1
2601 18 1
2601 138 1
2601 139 1
2601 609 1
2601 1061 1
2601 1165 1
2601 1553 1
2601 3074 1
2601 3285 1
2602 9 1
2602 81 1
2602 145 1
2602 1025 1
2602 1029 1
2602 2081 1
2603 66 1
2603 114 1
2603 515 1
2603 1033 1
2603 2187 1
2604 156 1
2605 8 1
2606 2056 1
2608 227 1
2609 2 1
2609 4 1
2609 21 1
2609 163 1
2609 298 1
2609 1170 1
2609 1364 1
2609 2121 1
2610 1 1
2610 19 1
2610 259 1
2610 1050 1
2610 1354 1
2610 2147 1
2611 193 1
2611 1025 1
2611 1121 1
2611 1157 1
2611 2182 1
2612 21 1
2612 593 1
2613 1 1
2614 3073 1
2615 65 1
2617 2 1
2619 2051 1
2621 842 1
2623 1126 1
2625 1 1
2625 2 1
2625 3 1
2625 4 1
2625 8 1
2625 17 1
2625 25 1
2625 33 1
2625 49 1
2625 65 1
2625 67 1
2625 77 1
2625 101 1
2625 209 1
2625 257 1
2625 281 1
2625 302 1
2625 337 1
2625 514 1
2625 530 1
2625 538 1
2625 609 1
2625 659 1
2625 775 1
2625 1037 1
2625 1041 1
2625 1070 1
2625 1093 1
2625 1221 1
2625 1287 1
2625 1553 1
2625 1583 1
2625 2097 1
2625 2193 1
2625 2307 1
2625 2591 1
2625 3075 1
2625 3121 1
2625 3201 1
2625 3217 1
2625 3265 1
2626 5 1
2626 27 1
2626 145 1
2626 201 1
2626 409 1
2626 513 1
2626 613 1
2626 1681 1
2626 2049 1
2626 2063 1
2627 1 1
2627 3 1
2627 10 1
2627 17 1
2627 68 1
2627 545 1
2627 770 1
2627 1285 1
2627 1575 1
2627 2116 1
2627 2642 1
2627 3729 1
2628 515 1
2628 722 1
2628 2719 1
2628 3329 1
2629 3 1
2629 5 1
2629 12 1
2629 53 1
2629 129 1
2629 131 1
2629 137 1
2629 161 1
2629 257 1
2629 275 1
2629 513 1
2629 611 1
2629 673 1
2629 1063 1
2629 1348 1
2629 1606 1
2629 2343 1
2629 2457 1
2629 3073 1
2629 3466 1
2629 3531 1
2630 1058 1
2630 1155 1
2631 169 1
2631 569 1
2632 645 1
2633 2 1
2633 83 1
2633 97 1
2633 131 1
2633 189 1
2633 534 1
2633 555 1
2633 646 1
2633 705 1
2633 707 1
2633 1569 1
2633 1955 1
2633 2051 1
2634 65 1
2634 2177 1
2635 18 1
2635 3841 1
2636 757 1
2636 1025 1
2637 369 1
2637 1609 1
2637 2210 1
2638 260 1
2639 229 1
2639 1557 1
2641 1 1
2641 20 1
2641 101 1
2641 226 1
2641 263 1
2641 321 1
2641 449 1
2641 527 1
2641 899 1
2641 1090 1
2641 1108 1
2641 1153 1
2641 1218 1
2641 1651 1
2641 1670 1
2641 2059 1
2641 2065 1
2641 2089 1
2642 1 1
2642 1041 1
2642 2627 1
2642 2995 1
2643 36 1
2643 65 1
2643 385 1
2643 513 1
2643 779 1
2643 1027 1
2643 3137 1
2644 1453 1
2645 147 1
2645 525 1
2645 1089 1
2647 385 1
2648 2209 1
2649 1025 1
2650 1285 1
2650 2102 1
2651 2150 1
2651 2178 1
2653 21 1
2653 264 1
2653 2193 1
2654 1 1
2657 9 1
2657 11 1
2657 13 1
2657 14 1
2657 35 1
2657 41 1
2657 103 1
2657 140 1
2657 145 1
2657 195 1
2657 385 1
2657 773 1
2657 961 1
2657 1057 1
2657 1169 1
2657 2069 1
2657 2309 1
2657 2338 1
2657 2961 1
2657 3093 1
2658 1 1
2658 71 1
2658 162 1
2658 385 1
2658 2061 1
2659 4 1
2659 565 1
2659 1179 1
2659 1713 1
2659 2053 1
2659 3145 1
2660 610 1
2660 2129 1
2661 9 1
2661 201 1
2663 177 1
2663 898 1
2665 91 1
2665 137 1
2665 195 1
2665 2198 1
2666 305 1
2666 3074 1
2667 65 1
2667 257 1
2669 2569 1
2673 1057 1
2673 1653 1
2673 2305 1
2674 129 1
2675 18 1
2675 578 1
2677 3 1
2677 145 1
2677 513 1
2677 1053 1
2681 1033 1
2682 9 1
2682 2049 1
2686 1 1
2689 2 1
2689 4 1
2689 11 1
2689 67 1
2689 133 1
2689 171 1
2689 259 1
2689 263 1
2689 290 1
2689 450 1
2689 528 1
2689 579 1
2689 1026 1
2689 1047 1
2689 1281 1
2689 1313 1
2689 1551 1
2689 1569 1
2689 2103 1
2689 2146 1
2689 2177 1
2689 2209 1
2689 2353 1
2689 3218 1
2689 3730 1
2690 1 1
2690 22 1
2690 37 1
2690 84 1
2690 115 1
2690 141 1
2690 167 1
2690 258 1
2690 297 1
2690 547 1
2690 617 1
2690 1185 1
2690 1746 1
2690 2146 1
2690 2565 1
2691 7 1
2691 9 1
2691 67 1
2691 132 1
2691 529 1
2691 1064 1
2691 2179 1
2692 11 1
2693 1 1
2693 19 1
2693 69 1
2693 82 1
2693 133 1
2693 241 1
2693 798 1
2693 1153 1
2693 1409 1
2693 2067 1
2693 2337 1
2693 3140 1
2694 35 1
2694 909 1
2694 1093 1
2695 1 1
2695 69 1
2695 545 1
2695 641 1
2695 3201 1
2696 2081 1
2696 2130 1
2697 1 1
2697 74 1
2697 281 1
2697 307 1
2697 354 1
2697 658 1
2697 803 1
2697 1281 1
2697 1297 1
2697 2049 1
2697 2055 1
2697 2562 1
2697 2699 1
2697 2809 1
2698 145 1
2698 1059 1
2698 2049 1
2699 2569 1
2699 2697 1
2700 1 1
2701 4 1
2701 65 1
2701 2183 1
2702 593 1
2705 1 1
2705 33 1
2705 67 1
2705 97 1
2705 257 1
2705 260 1
2705 275 1
2705 325 1
2705 577 1
2705 849 1
2705 1057 1
2705 2179 1
2705 3201 1
2706 538 1
2706 3139 1
2707 514 1
2707 1025 1
2707 2086 1
2707 2115 1
2708 519 1
2708 2087 1
2709 185 1
2709 1729 1
2710 1 1
2710 33 1
2710 2257 1
2711 69 1
2711 1352 1
2712 577 1
2713 195 1
2713 257 1
2713 2561 1
2713 3331 1
2714 1091 1
2714 1099 1
2714 2341 1
2715 3137 1
2716 162 1
2719 25 1
2719 2628 1
2720 10 1
2721 4 1
2721 9 1
2721 129 1
2721 131 1
2721 143 1
2721 257 1
2721 321 1
2721 330 1
2721 417 1
2721 2177 1
2721 2821 1
2722 144 1
2722 2105 1
2723 2 1
2723 261 1
2723 1059 1
2724 579 1
2725 2 1
2725 33 1
2725 36 1
2725 161 1
2725 297 1
2725 601 1
2725 1033 1
2726 1281 1
2729 1 1
2729 529 1
2729 579 1
2729 1319 1
2731 540 1
2733 513 1
2737 2 1
2737 3 1
2737 99 1
2737 257 1
2737 775 1
2739 1089 1
2740 2309 1
2741 1 1
2743 97 1
2745 1281 1
2745 3329 1
2753 22 1
2753 53 1
2753 58 1
2753 129 1
2753 133 1
2753 138 1
2753 257 1
2753 286 1
2753 289 1
2753 546 1
2753 1090 1
2753 1093 1
2753 1282 1
2753 1597 1
2753 1833 1
2753 2469 1
2753 2562 1
2753 2826 1
2754 19 1
2754 531 1
2754 2049 1
2754 2371 1
2755 73 1
2756 513 1
2756 769 1
2757 545 1
2757 2435 1
2758 77 1
2758 595 1
2758 1187 1
2758 3137 1
2761 67 1
2761 129 1
2761 327 1
2761 1217 1
2763 11 1
2763 225 1
2763 1039 1
2765 1 1
2767 1029 1
2769 1 1
2769 769 1
2769 1156 1
2772 400 1
2774 517 1
2775 1540 1
2777 81 1
2777 589 1
2777 3457 1
2781 1 1
2785 33 1
2785 2061 1
2787 1635 1
2787 2145 1
2791 2505 1
2793 209 1
2793 643 1
2794 3 1
2794 321 1
2797 641 1
2809 2697 1
2817 1 1
2817 9 1
2817 21 1
2817 27 1
2817 34 1
2817 65 1
2817 89 1
2817 145 1
2817 147 1
2817 193 1
2817 265 1
2817 385 1
2817 449 1
2817 529 1
2817 545 1
2817 627 1
2817 1041 1
2817 1168 1
2817 1553 1
2817 1565 1
2817 1746 1
2817 2057 1
2817 2091 1
2817 2345 1
2817 2561 1
2817 2897 1
2817 3115 1
2818 18 1
2818 86 1
2818 113 1
2818 385 1
2818 393 1
2818 791 1
2818 1025 1
2818 1153 1
2818 2049 1
2819 1 1
2819 2 1
2819 145 1
2819 335 1
2819 657 1
2819 1029 1
2819 1157 1
2819 1569 1
2819 1570 1
2819 1665 1
2819 2081 1
2820 3 1
2820 11 1
2820 1623 1
2821 1 1
2821 13 1
2821 17 1
2821 21 1
2821 65 1
2821 152 1
2821 161 1
2821 273 1
2821 394 1
2821 1027 1
2821 1068 1
2821 1093 1
2821 1794 1
2821 2114 1
2821 2149 1
2821 2215 1
2821 2225 1
2821 2721 1
2821 3233 1
2822 82 1
2822 97 1
2822 100 1
2822 361 1
2822 780 1
2822 1161 1
2822 1169 1
2823 285 1
2823 899 1
2823 1025 1
2823 2098 1
2824 650 1
2825 7 1
2825 74 1
2825 77 1
2825 99 1
2825 177 1
2825 321 1
2825 513 1
2825 1034 1
2825 1089 1
2825 3073 1
2826 13 1
2826 529 1
2826 533 1
2826 585 1
2826 2753 1
2827 1 1
2827 149 1
2827 261 1
2827 2059 1
2827 2069 1
2828 5 1
2829 10 1
2829 167 1
2829 527 1
2829 1028 1
2829 1033 1
2830 3077 1
2831 1 1
2831 281 1
2832 53 1
2833 45 1
2833 97 1
2833 262 1
2833 265 1
2833 1029 1
2833 1157 1
2833 3110 1
2834 1 1
2834 10 1
2834 1122 1
2834 1314 1
2834 1605 1
2834 2185 1
2835 513 1
2835 1204 1
2835 2117 1
2835 3329 1
2837 1089 1
2837 1100 1
2838 294 1
2838 3082 1
2841 1 1
2841 3 1
2841 11 1
2841 17 1
2841 70 1
2841 167 1
2841 259 1
2841 353 1
2841 737 1
2841 1025 1
2841 2049 1
2841 3241 1
2842 258 1
2842 2201 1
2843 647 1
2845 1100 1
2845 2049 1
2846 275 1
2846 1157 1
2849 1 1
2849 10 1
2849 19 1
2849 69 1
2849 258 1
2849 569 1
2849 713 1
2849 777 1
2849 1177 1
2849 1185 1
2849 1305 1
2849 1409 1
2849 1417 1
2849 1537 1
2849 1548 1
2849 1877 1
2849 2130 1
2849 2177 1
2849 3381 1
2849 3593 1
2850 9 1
2850 454 1
2850 2055 1
2850 2114 1
2850 2337 1
2850 3621 1
2851 9 1
2851 33 1
2851 329 1
2851 2049 1
2851 2321 1
2853 162 1
2853 1345 1
2853 2277 1
2853 2433 1
2853 3205 1
2854 689 1
2856 1049 1
2857 262 1
2857 551 1
2857 1044 1
2857 2084 1
2858 1058 1
2860 66 1
2861 2 1
2861 804 1
2861 1073 1
2865 330 1
2865 1031 1
2865 1037 1
2865 1541 1
2866 1555 1
2866 2117 1
2878 801 1
2881 81 1
2881 205 1
2881 421 1
2881 481 1
2881 2081 1
2881 2191 1
2881 3331 1
2882 7 1
2882 71 1
2882 144 1
2882 515 1
2882 3089 1
2883 31 1
2883 2051 1
2884 257 1
2884 2441 1
2885 24 1
2885 514 1
2885 2097 1
2887 321 1
2889 1545 1
2890 2201 1
2891 1029 1
2891 2210 1
2894 517 1
2897 8 1
2897 517 1
2897 1025 1
2897 2817 1
2898 3459 1
2899 1 1
2900 1 1
2901 2049 1
2902 2049 1
2905 5 1
2905 110 1
2905 122 1
2905 146 1
2913 1 1
2913 145 1
2913 259 1
2913 1033 1
2913 1091 1
2917 265 1
2917 1025 1
2917 2063 1
2921 33 1
2921 643 1
2921 1313 1
2922 1729 1
2937 514 1
2945 7 1
2945 130 1
2945 521 1
2945 681 1
2945 737 1
2945 841 1
2945 1041 1
2945 2049 1
2945 2193 1
2945 2369 1
2945 2593 1
2945 3105 1
2945 3121 1
2945 3366 1
2945 3461 1
2946 3 1
2946 513 1
2946 1665 1
2946 2177 1
2947 46 1
2947 257 1
2947 1028 1
2947 1064 1
2948 1026 1
2948 1217 1
2949 114 1
2949 257 1
2949 1027 1
2949 1409 1
2949 1540 1
2949 2050 1
2950 2049 1
2951 3 1
2951 365 1
2951 1337 1
2952 1033 1
2953 47 1
2953 129 1
2953 305 1
2953 353 1
2953 594 1
2953 1571 1
2953 2049 1
2953 2072 1
2953 3137 1
2954 409 1
2956 315 1
2957 1 1
2958 1 1
2961 18 1
2961 2657 1
2961 3077 1
2962 898 1
2964 33 1
2965 73 1
2965 1419 1
2967 3137 1
2972 516 1
2973 58 1
2977 6 1
2977 19 1
2977 36 1
2977 526 1
2977 769 1
2987 36 1
2990 582 1
2993 513 1
2993 713 1
2993 1541 1
2994 5 1
2995 2642 1
3001 513 1
3001 833 1
3009 921 1
3009 1030 1
3009 1731 1
3010 170 1
3011 66 1
3013 33 1
3017 2081 1
3018 193 1
3019 1665 1
3020 259 1
3021 81 1
3029 2181 1
3032 769 1
3033 37 1
3041 1 1
3041 278 1
3041 3093 1
3045 2597 1
3057 9 1
3073 1 1
3073 2 1
3073 3 1
3073 5 1
3073 7 1
3073 9 1
3073 10 1
3073 18 1
3073 21 1
3073 22 1
3073 28 1
3073 29 1
3073 38 1
3073 42 1
3073 65 1
3073 67 1
3073 81 1
3073 85 1
3073 89 1
3073 93 1
3073 96 1
3073 97 1
3073 110 1
3073 129 1
3073 130 1
3073 131 1
3073 145 1
3073 149 1
3073 162 1
3073 194 1
3073 229 1
3073 234 1
3073 249 1
3073 257 1
3073 258 1
3073 262 1
3073 263 1
3073 266 1
3073 273 1
3073 290 1
3073 291 1
3073 306 1
3073 321 1
3073 385 1
3073 387 1
3073 398 1
3073 414 1
3073 433 1
3073 451 1
3073 513 1
3073 514 1
3073 516 1
3073 519 1
3073 534 1
3073 553 1
3073 581 1
3073 585 1
3073 587 1
3073 641 1
3073 643 1
3073 653 1
3073 689 1
3073 709 1
3073 770 1
3073 833 1
3073 850 1
3073 904 1
3073 906 1
3073 929 1
3073 1025 1
3073 1029 1
3073 1038 1
3073 1041 1
3073 1057 1
3073 1067 1
3073 1089 1
3073 1224 1
3073 1228 1
3073 1288 1
3073 1297 1
3073 1300 1
3073 1301 1
3073 1418 1
3073 1563 1
3073 1793 1
3073 1794 1
3073 1825 1
3073 1921 1
3073 1937 1
3073 2049 1
3073 2053 1
3073 2057 1
3073 2058 1
3073 2090 1
3073 2093 1
3073 2113 1
3073 2146 1
3073 2178 1
3073 2247 1
3073 2301 1
3073 2305 1
3073 2306 1
3073 2321 1
3073 2514 1
3073 2563 1
3073 2614 1
3073 2629 1
3073 2825 1
3073 3074 1
3073 3329 1
3073 3334 1
3074 1 1
3074 6 1
3074 26 1
3074 49 1
3074 65 1
3074 85 1
3074 90 1
3074 101 1
3074 129 1
3074 135 1
3074 162 1
3074 642 1
3074 651 1
3074 913 1
3074 1025 1
3074 1079 1
3074 1539 1
3074 1553 1
3074 2055 1
3074 2061 1
3074 2308 1
3074 2375 1
3074 2601 1
3074 2666 1
3074 3073 1
3074 3546 1
3075 2 1
3075 3 1
3075 9 1
3075 16 1
3075 17 1
3075 33 1
3075 75 1
3075 79 1
3075 89 1
3075 98 1
3075 162 1
3075 200 1
3075 260 1
3075 261 1
3075 265 1
3075 295 1
3075 520 1
3075 1033 1
3075 1057 1
3075 1169 1
3075 1281 1
3075 1409 1
3075 1551 1
3075 2050 1
3075 2051 1
3075 2057 1
3075 2179 1
3075 2194 1
3075 2299 1
3075 2377 1
3075 2625 1
3075 3873 1
3076 1 1
3076 9 1
3076 273 1
3076 347 1
3076 557 1
3076 769 1
3076 1025 1
3076 1585 1
3076 1606 1
3076 2081 1
3077 2 1
3077 3 1
3077 17 1
3077 18 1
3077 33 1
3077 38 1
3077 57 1
3077 66 1
3077 82 1
3077 85 1
3077 545 1
3077 569 1
3077 582 1
3077 585 1
3077 794 1
3077 955 1
3077 1065 1
3077 1098 1
3077 1164 1
3077 2049 1
3077 2055 1
3077 2178 1
3077 2307 1
3077 2345 1
3077 2507 1
3077 2830 1
3077 2961 1
3077 3618 1
3078 33 1
3078 99 1
3078 170 1
3078 261 1
3078 837 1
3078 1041 1
3078 1061 1
3078 1089 1
3078 1570 1
3078 1606 1
3078 1795 1
3078 2083 1
3078 2313 1
3078 2433 1
3079 17 1
3079 42 1
3079 49 1
3079 129 1
3079 257 1
3079 258 1
3079 344 1
3079 419 1
3079 513 1
3079 545 1
3079 1033 1
3079 1049 1
3079 1347 1
3079 2049 1
3079 2307 1
3079 2497 1
3080 545 1
3080 2049 1
3080 2438 1
3080 3087 1
3081 1 1
3081 2 1
3081 5 1
3081 6 1
3081 10 1
3081 19 1
3081 33 1
3081 37 1
3081 65 1
3081 113 1
3081 129 1
3081 145 1
3081 147 1
3081 161 1
3081 213 1
3081 257 1
3081 266 1
3081 321 1
3081 513 1
3081 517 1
3081 545 1
3081 584 1
3081 594 1
3081 677 1
3081 748 1
3081 849 1
3081 985 1
3081 1030 1
3081 1122 1
3081 1321 1
3081 1565 1
3081 1795 1
3081 1826 1
3081 2049 1
3081 2050 1
3081 2053 1
3081 2063 1
3081 2109 1
3081 2210 1
3081 2309 1
3082 66 1
3082 161 1
3082 369 1
3082 517 1
3082 577 1
3082 673 1
3082 849 1
3082 2322 1
3082 2577 1
3082 2838 1
3083 2 1
3083 33 1
3083 65 1
3083 84 1
3083 93 1
3083 117 1
3083 132 1
3083 542 1
3083 673 1
3083 901 1
3083 1095 1
3083 1547 1
3083 2310 1
3084 9 1
3084 14 1
3085 9 1
3085 34 1
3085 131 1
3085 290 1
3085 385 1
3085 610 1
3085 1027 1
3085 1041 1
3085 1410 1
3085 2069 1
3085 2169 1
3086 39 1
3086 411 1
3086 603 1
3086 761 1
3086 1330 1
3086 2068 1
3087 65 1
3087 85 1
3087 1030 1
3087 3080 1
3089 3 1
3089 5 1
3089 33 1
3089 69 1
3089 257 1
3089 273 1
3089 290 1
3089 385 1
3089 409 1
3089 427 1
3089 569 1
3089 780 1
3089 834 1
3089 1065 1
3089 1289 1
3089 1555 1
3089 1825 1
3089 2060 1
3089 2069 1
3089 2085 1
3089 2315 1
3089 2378 1
3089 2570 1
3089 2585 1
3089 2882 1
3090 1 1
3090 33 1
3090 37 1
3090 130 1
3090 161 1
3090 275 1
3090 545 1
3090 715 1
3090 787 1
3090 1289 1
3090 1673 1
3090 3156 1
3091 19 1
3091 25 1
3091 257 1
3091 268 1
3091 353 1
3091 513 1
3091 963 1
3091 1292 1
3091 1313 1
3091 2209 1
3091 2226 1
3091 2369 1
3092 307 1
3092 545 1
3092 1441 1
3093 3 1
3093 7 1
3093 13 1
3093 35 1
3093 65 1
3093 67 1
3093 73 1
3093 114 1
3093 524 1
3093 613 1
3093 1025 1
3093 2185 1
3093 2657 1
3093 3041 1
3094 2055 1
3095 2 1
3095 66 1
3095 2053 1
3097 1 1
3097 98 1
3097 129 1
3097 134 1
3097 145 1
3097 293 1
3097 518 1
3097 709 1
3097 2370 1
3097 3713 1
3098 1 1
3098 258 1
3098 261 1
3098 609 1
3098 1799 1
3099 1 1
3099 18 1
3099 289 1
3099 1065 1
3101 81 1
3101 1297 1
3103 17 1
3103 513 1
3103 1155 1
3104 385 1
3105 3 1
3105 18 1
3105 49 1
3105 65 1
3105 69 1
3105 97 1
3105 129 1
3105 130 1
3105 137 1
3105 145 1
3105 146 1
3105 153 1
3105 257 1
3105 266 1
3105 269 1
3105 293 1
3105 545 1
3105 1029 1
3105 1039 1
3105 1349 1
3105 1418 1
3105 1449 1
3105 1489 1
3105 2049 1
3105 2050 1
3105 2082 1
3105 2273 1
3105 2369 1
3105 2563 1
3105 2945 1
3105 3137 1
3105 3147 1
3106 2 1
3106 5 1
3106 15 1
3106 17 1
3106 81 1
3106 533 1
3106 714 1
3106 1025 1
3106 1045 1
3106 2050 1
3107 6 1
3107 10 1
3107 235 1
3107 265 1
3107 273 1
3107 393 1
3107 696 1
3107 895 1
3107 1058 1
3107 1282 1
3107 1728 1
3107 2538 1
3108 1411 1
3109 1 1
3109 2 1
3109 65 1
3109 193 1
3109 259 1
3109 281 1
3109 803 1
3109 1041 1
3109 2061 1
3110 609 1
3110 2833 1
3111 73 1
3111 163 1
3111 522 1
3111 1026 1
3112 514 1
3112 2433 1
3113 1 1
3113 27 1
3113 115 1
3113 161 1
3113 170 1
3113 289 1
3113 305 1
3113 321 1
3113 681 1
3113 1027 1
3113 1042 1
3113 1057 1
3113 1089 1
3113 1371 1
3113 2081 1
3113 3217 1
3114 1 1
3114 2 1
3114 361 1
3114 513 1
3114 558 1
3114 2050 1
3114 2319 1
3114 3237 1
3115 1 1
3115 371 1
3115 525 1
3115 564 1
3115 1601 1
3115 2185 1
3115 2566 1
3115 2817 1
3117 129 1
3117 609 1
3117 777 1
3118 261 1
3119 581 1
3121 1 1
3121 65 1
3121 82 1
3121 292 1
3121 2191 1
3121 2265 1
3121 2305 1
3121 2625 1
3121 2945 1
3121 3146 1
3121 3858 1
3122 1 1
3122 5 1
3122 33 1
3122 193 1
3122 642 1
3123 11 1
3125 35 1
3125 257 1
3125 797 1
3125 1073 1
3125 1338 1
3127 27 1
3127 137 1
3127 201 1
3129 2053 1
3129 2057 1
3129 3337 1
3130 527 1
3132 145 1
3135 19 1
3137 5 1
3137 9 1
3137 12 1
3137 41 1
3137 46 1
3137 99 1
3137 147 1
3137 194 1
3137 197 1
3137 273 1
3137 301 1
3137 363 1
3137 396 1
3137 513 1
3137 537 1
3137 586 1
3137 593 1
3137 624 1
3137 646 1
3137 771 1
3137 811 1
3137 1029 1
3137 1035 1
3137 1041 1
3137 1069 1
3137 1153 1
3137 1170 1
3137 1539 1
3137 1628 1
3137 1674 1
3137 1794 1
3137 2051 1
3137 2059 1
3137 2129 1
3137 2169 1
3137 2181 1
3137 2321 1
3137 2561 1
3137 2569 1
3137 2643 1
3137 2715 1
3137 2758 1
3137 2953 1
3137 2967 1
3137 3105 1
3137 3339 1
3138 1 1
3138 3 1
3138 65 1
3138 73 1
3138 257 1
3138 331 1
3138 513 1
3138 1665 1
3138 2097 1
3138 2140 1
3138 2143 1
3138 2374 1
3139 1 1
3139 81 1
3139 101 1
3139 257 1
3139 275 1
3139 513 1
3139 1105 1
3139 1153 1
3139 1607 1
3139 2434 1
3139 2706 1
3140 9 1
3140 562 1
3140 2693 1
3141 5 1
3141 9 1
3141 17 1
3141 65 1
3141 261 1
3141 268 1
3141 385 1
3141 545 1
3141 897 1
3141 1049 1
3141 1057 1
3141 1089 1
3141 1586 1
3141 1859 1
3141 1867 1
3141 2065 1
3141 2185 1
3141 2307 1
3141 3209 1
3142 129 1
3142 259 1
3142 513 1
3142 1025 1
3143 582 1
3143 2561 1
3145 53 1
3145 66 1
3145 196 1
3145 599 1
3145 641 1
3145 1041 1
3145 1801 1
3145 2130 1
3145 2314 1
3145 2387 1
3145 2434 1
3145 2659 1
3145 3370 1
3146 197 1
3146 531 1
3146 1547 1
3146 3121 1
3147 17 1
3147 69 1
3147 323 1
3147 549 1
3147 1186 1
3147 1569 1
3147 2053 1
3147 2594 1
3147 3105 1
3148 10 1
3148 1077 1
3148 1543 1
3148 3621 1
3149 41 1
3149 130 1
3149 138 1
3149 2185 1
3151 129 1
3151 1057 1
3153 1 1
3153 21 1
3153 97 1
3153 201 1
3153 353 1
3153 581 1
3153 1025 1
3153 1297 1
3153 1377 1
3154 259 1
3154 2321 1
3154 3203 1
3155 771 1
3155 777 1
3156 297 1
3156 3090 1
3157 34 1
3157 117 1
3157 259 1
3157 923 1
3157 1027 1
3157 1554 1
3158 65 1
3158 73 1
3158 515 1
3160 643 1
3160 3665 1
3161 1 1
3161 3 1
3161 9 1
3163 1161 1
3165 131 1
3165 2059 1
3165 2225 1
3165 2492 1
3168 65 1
3169 1 1
3169 37 1
3169 129 1
3169 138 1
3169 265 1
3169 270 1
3169 273 1
3169 345 1
3169 534 1
3169 538 1
3169 577 1
3169 1057 1
3169 1177 1
3169 1281 1
3169 1348 1
3169 1641 1
3169 1794 1
3170 258 1
3171 70 1
3171 73 1
3171 385 1
3171 517 1
3171 1081 1
3171 2049 1
3171 2087 1
3172 1537 1
3173 1 1
3173 77 1
3173 673 1
3173 1043 1
3173 1225 1
3174 18 1
3174 27 1
3176 66 1
3177 2 1
3177 25 1
3177 51 1
3177 263 1
3177 2055 1
3185 209 1
3185 213 1
3185 385 1
3185 523 1
3185 1669 1
3185 2201 1
3186 265 1
3186 709 1
3186 1345 1
3186 2065 1
3186 2113 1
3187 2 1
3188 97 1
3189 7 1
3189 2321 1
3193 1185 1
3201 2 1
3201 7 1
3201 9 1
3201 20 1
3201 33 1
3201 57 1
3201 65 1
3201 105 1
3201 129 1
3201 145 1
3201 193 1
3201 198 1
3201 257 1
3201 298 1
3201 322 1
3201 515 1
3201 545 1
3201 551 1
3201 643 1
3201 1349 1
3201 2050 1
3201 2118 1
3201 2145 1
3201 2149 1
3201 2157 1
3201 2561 1
3201 2625 1
3201 2695 1
3201 2705 1
3202 1 1
3202 17 1
3202 195 1
3202 260 1
3202 801 1
3202 851 1
3202 1475 1
3202 2049 1
3202 2081 1
3202 2305 1
3203 17 1
3203 57 1
3203 69 1
3203 83 1
3203 140 1
3203 186 1
3203 389 1
3203 517 1
3203 769 1
3203 1614 1
3203 3154 1
3204 1 1
3204 198 1
3204 597 1
3205 3 1
3205 4 1
3205 17 1
3205 65 1
3205 295 1
3205 513 1
3205 561 1
3205 610 1
3205 641 1
3205 833 1
3205 2137 1
3205 2357 1
3205 2853 1
3206 214 1
3206 325 1
3206 1040 1
3206 2561 1
3207 5 1
3207 266 1
3207 962 1
3207 1210 1
3207 2337 1
3208 2 1
3208 65 1
3208 394 1
3209 1 1
3209 129 1
3209 353 1
3209 561 1
3209 645 1
3209 1061 1
3209 1188 1
3209 1289 1
3209 3141 1
3210 130 1
3210 1027 1
3210 1194 1
3210 2050 1
3210 2203 1
3210 2313 1
3211 1076 1
3211 1283 1
3212 5 1
3212 278 1
3212 2083 1
3213 33 1
3213 37 1
3213 781 1
3214 301 1
3215 2 1
3215 37 1
3215 261 1
3215 722 1
3215 2053 1
3217 1 1
3217 3 1
3217 6 1
3217 9 1
3217 37 1
3217 71 1
3217 105 1
3217 321 1
3217 334 1
3217 1033 1
3217 1050 1
3217 1123 1
3217 1281 1
3217 1537 1
3217 1667 1
3217 2146 1
3217 2625 1
3217 3113 1
3218 9 1
3218 1058 1
3218 2689 1
3219 65 1
3219 193 1
3219 514 1
3219 517 1
3220 97 1
3221 91 1
3221 100 1
3221 129 1
3221 577 1
3221 2051 1
3221 2067 1
3223 5 1
3225 555 1
3225 584 1
3225 804 1
3225 2082 1
3227 161 1
3227 2313 1
3228 258 1
3229 131 1
3229 285 1
3229 337 1
3229 498 1
3230 193 1
3231 68 1
3231 2049 1
3233 7 1
3233 68 1
3233 83 1
3233 140 1
3233 265 1
3233 291 1
3233 405 1
3233 545 1
3233 642 1
3233 2821 1
3234 25 1
3234 2343 1
3235 367 1
3235 513 1
3235 770 1
3235 1045 1
3237 217 1
3237 1089 1
3237 1321 1
3237 3114 1
3238 2083 1
3241 7 1
3241 530 1
3241 1288 1
3241 2841 1
3242 36 1
3242 369 1
3242 519 1
3242 1281 1
3243 641 1
3243 2578 1
3248 293 1
3249 197 1
3249 257 1
3249 369 1
3250 621 1
3253 193 1
3257 2 1
3257 18 1
3257 52 1
3257 130 1
3261 578 1
3263 389 1
3265 9 1
3265 133 1
3265 257 1
3265 515 1
3265 2087 1
3265 2625 1
3267 1033 1
3267 2113 1
3268 60 1
3269 41 1
3270 31 1
3271 1634 1
3272 2585 1
3273 257 1
3273 309 1
3273 771 1
3273 1283 1
3273 3609 1
3274 129 1
3274 534 1
3274 1154 1
3275 3586 1
3277 17 1
3278 81 1
3281 386 1
3281 2053 1
3281 2377 1
3281 3943 1
3282 1041 1
3282 2177 1
3283 17 1
3283 42 1
3283 2169 1
3284 833 1
3285 19 1
3285 65 1
3285 2601 1
3287 1035 1
3295 1060 1
3297 5 1
3297 85 1
3297 130 1
3297 261 1
3297 1987 1
3301 2338 1
3305 130 1
3306 3 1
3313 68 1
3313 513 1
3329 1 1
3329 17 1
3329 33 1
3329 52 1
3329 73 1
3329 77 1
3329 81 1
3329 129 1
3329 177 1
3329 395 1
3329 417 1
3329 515 1
3329 533 1
3329 578 1
3329 642 1
3329 648 1
3329 653 1
3329 752 1
3329 770 1
3329 801 1
3329 1075 1
3329 1090 1
3329 1099 1
3329 1543 1
3329 1551 1
3329 1589 1
3329 2057 1
3329 2085 1
3329 2113 1
3329 2273 1
3329 2628 1
3329 2745 1
3329 2835 1
3329 3073 1
3329 3757 1
3330 1 1
3330 5 1
3330 6 1
3330 9 1
3330 33 1
3330 41 1
3330 193 1
3330 217 1
3330 257 1
3330 386 1
3330 483 1
3330 514 1
3330 673 1
3330 1105 1
3330 2153 1
3331 1 1
3331 3 1
3331 5 1
3331 43 1
3331 265 1
3331 281 1
3331 513 1
3331 611 1
3331 1282 1
3331 2120 1
3331 2315 1
3331 2354 1
3331 2442 1
3331 2713 1
3331 2881 1
3332 173 1
3332 454 1
3333 4 1
3333 5 1
3333 18 1
3333 19 1
3333 33 1
3333 82 1
3333 129 1
3333 155 1
3333 401 1
3333 513 1
3333 1037 1
3333 2084 1
3334 1 1
3334 17 1
3334 81 1
3334 289 1
3334 429 1
3334 521 1
3334 1043 1
3334 3073 1
3334 3606 1
3335 19 1
3335 707 1
3335 2241 1
3337 90 1
3337 98 1
3337 385 1
3337 386 1
3337 465 1
3337 530 1
3337 573 1
3337 793 1
3337 2058 1
3337 3129 1
3338 19 1
3338 101 1
3338 517 1
3338 1027 1
3338 1601 1
3339 145 1
3339 565 1
3339 2049 1
3339 3137 1
3341 649 1
3341 676 1
3341 2049 1
3343 2381 1
3345 4 1
3345 857 1
3345 1033 1
3345 1045 1
3345 1076 1
3345 1291 1
3345 1538 1
3345 1553 1
3345 1825 1
3345 2233 1
3345 3713 1
3346 1 1
3346 516 1
3347 65 1
3347 257 1
3349 9 1
3349 2433 1
3353 1 1
3353 17 1
3353 131 1
3353 325 1
3353 2069 1
3353 2209 1
3355 5 1
3355 33 1
3356 65 1
3357 257 1
3357 321 1
3357 643 1
3361 2 1
3361 3 1
3361 73 1
3361 283 1
3361 577 1
3361 641 1
3361 1089 1
3362 67 1
3362 193 1
3362 271 1
3363 1 1
3363 547 1
3363 1091 1
3363 1175 1
3363 1185 1
3363 2054 1
3363 2117 1
3363 3617 1
3364 39 1
3364 65 1
3364 259 1
3364 2180 1
3365 31 1
3365 65 1
3365 145 1
3365 305 1
3366 1 1
3366 2945 1
3369 1 1
3369 2 1
3369 34 1
3369 49 1
3369 131 1
3370 2049 1
3370 3145 1
3371 1302 1
3373 131 1
3374 69 1
3374 2313 1
3377 9 1
3377 70 1
3377 771 1
3377 2177 1
3377 2337 1
3377 3874 1
3378 9 1
3379 1861 1
3381 545 1
3381 2849 1
3382 391 1
3385 97 1
3386 17 1
3393 3 1
3393 17 1
3393 57 1
3393 129 1
3393 325 1
3393 585 1
3393 1027 1
3393 1098 1
3393 1201 1
3394 81 1
3394 401 1
3394 585 1
3394 661 1
3394 1155 1
3394 2177 1
3394 2194 1
3395 1 1
3395 30 1
3395 2081 1
3395 2193 1
3395 3585 1
3396 115 1
3397 9 1
3397 2073 1
3398 1539 1
3399 513 1
3399 613 1
3400 2055 1
3401 65 1
3401 433 1
3401 1025 1
3401 1153 1
3402 39 1
3402 2452 1
3403 10 1
3404 1690 1
3407 1667 1
3407 2119 1
3409 35 1
3409 221 1
3409 545 1
3409 777 1
3409 1030 1
3411 49 1
3411 1025 1
3412 131 1
3414 353 1
3415 2081 1
3417 355 1
3418 3 1
3421 2131 1
3423 2066 1
3425 1 1
3425 9 1
3425 33 1
3426 549 1
3426 3617 1
3427 449 1
3429 779 1
3432 19 1
3433 769 1
3433 2117 1
3434 1 1
3441 7 1
3441 130 1
3445 57 1
3445 1160 1
3449 577 1
3450 369 1
3455 131 1
3457 10 1
3457 11 1
3457 35 1
3457 84 1
3457 310 1
3457 335 1
3457 705 1
3457 918 1
3457 1049 1
3457 1249 1
3457 1959 1
3457 2561 1
3457 2777 1
3458 131 1
3458 525 1
3458 737 1
3458 2065 1
3459 3 1
3459 5 1
3459 21 1
3459 193 1
3459 2049 1
3459 2310 1
3459 2898 1
3460 6 1
3461 1 1
3461 67 1
3461 131 1
3461 2945 1
3462 38 1
3462 329 1
3465 241 1
3465 641 1
3465 1051 1
3465 1807 1
3466 81 1
3466 2629 1
3469 4 1
3469 321 1
3470 1043 1
3473 4 1
3473 33 1
3473 52 1
3473 262 1
3473 387 1
3476 9 1
3476 35 1
3477 6 1
3479 28 1
3481 1 1
3483 81 1
3483 553 1
3489 99 1
3490 277 1
3493 1 1
3493 514 1
3497 3 1
3505 548 1
3509 28 1
3519 1226 1
3521 1 1
3521 777 1
3521 1129 1
3523 81 1
3523 578 1
3523 1857 1
3525 26 1
3525 641 1
3525 769 1
3531 2629 1
3533 2305 1
3537 527 1
3537 537 1
3540 2562 1
3541 1121 1
3545 137 1
3546 3074 1
3557 2097 1
3558 515 1
3559 5 1
3561 273 1
3573 514 1
3585 4 1
3585 5 1
3585 9 1
3585 17 1
3585 33 1
3585 35 1
3585 71 1
3585 73 1
3585 129 1
3585 147 1
3585 157 1
3585 260 1
3585 293 1
3585 297 1
3585 323 1
3585 353 1
3585 389 1
3585 513 1
3585 531 1
3585 545 1
3585 641 1
3585 645 1
3585 654 1
3585 677 1
3585 769 1
3585 833 1
3585 882 1
3585 1025 1
3585 1049 1
3585 1061 1
3585 1094 1
3585 1126 1
3585 1286 1
3585 1411 1
3585 2049 1
3585 2053 1
3585 2060 1
3585 2074 1
3585 2179 1
3585 2195 1
3585 2410 1
3585 3395 1
3585 4042 1
3586 1 1
3586 49 1
3586 98 1
3586 147 1
3586 273 1
3586 289 1
3586 897 1
3586 2055 1
3586 2073 1
3586 2130 1
3586 3275 1
3587 1 1
3587 19 1
3587 75 1
3587 97 1
3587 193 1
3587 209 1
3587 289 1
3587 513 1
3587 531 1
3587 706 1
3587 961 1
3587 1153 1
3587 1217 1
3587 2435 1
3588 65 1
3588 73 1
3588 403 1
3588 1677 1
3588 2185 1
3589 34 1
3589 135 1
3589 641 1
3589 1297 1
3590 42 1
3590 1025 1
3590 2561 1
3591 274 1
3592 13 1
3592 153 1
3592 1683 1
3593 3 1
3593 481 1
3593 645 1
3593 1065 1
3593 2377 1
3593 2449 1
3593 2569 1
3593 2849 1
3594 13 1
3594 529 1
3594 1106 1
3597 260 1
3597 1041 1
3597 2049 1
3598 537 1
3599 5 1
3599 513 1
3599 2114 1
3601 41 1
3601 50 1
3601 65 1
3601 99 1
3601 137 1
3601 389 1
3601 578 1
3601 1025 1
3601 2051 1
3602 321 1
3602 1249 1
3603 133 1
3603 1441 1
3605 21 1
3605 65 1
3605 147 1
3605 1353 1
3605 2081 1
3605 2594 1
3606 2 1
3606 3334 1
3609 646 1
3609 1565 1
3609 2065 1
3609 2146 1
3609 3273 1
3610 835 1
3611 99 1
3613 1 1
3613 3 1
3613 177 1
3613 2050 1
3613 2241 1
3617 3 1
3617 9 1
3617 37 1
3617 147 1
3617 149 1
3617 177 1
3617 257 1
3617 309 1
3617 387 1
3617 614 1
3617 836 1
3617 1185 1
3617 2055 1
3617 2131 1
3617 2389 1
3617 2575 1
3617 2593 1
3617 3363 1
3617 3426 1
3618 65 1
3618 154 1
3618 1627 1
3618 2080 1
3618 3077 1
3619 17 1
3619 129 1
3619 1026 1
3621 5 1
3621 89 1
3621 801 1
3621 2850 1
3621 3148 1
3622 2145 1
3623 5 1
3624 131 1
3625 1 1
3625 45 1
3625 73 1
3625 657 1
3626 2 1
3627 146 1
3629 35 1
3633 1 1
3633 257 1
3633 306 1
3633 327 1
3633 1104 1
3633 1603 1
3634 11 1
3634 386 1
3637 322 1
3637 517 1
3637 1057 1
3637 1558 1
3641 89 1
3643 387 1
3644 4 1
3649 2 1
3649 17 1
3649 49 1
3649 99 1
3649 131 1
3649 145 1
3649 161 1
3649 548 1
3649 553 1
3649 725 1
3650 17 1
3650 532 1
3650 577 1
3651 3 1
3651 74 1
3651 145 1
3651 291 1
3653 34 1
3653 777 1
3653 1303 1
3654 33 1
3654 57 1
3654 129 1
3654 357 1
3655 11 1
3655 386 1
3655 2129 1
3657 2053 1
3658 1058 1
3659 15 1
3659 270 1
3661 645 1
3663 33 1
3665 33 1
3665 279 1
3665 3160 1
3668 2379 1
3669 1 1
3669 97 1
3669 2145 1
3673 1 1
3673 129 1
3681 72 1
3681 2563 1
3683 163 1
3683 598 1
3683 1161 1
3684 513 1
3687 129 1
3689 715 1
3689 801 1
3697 515 1
3705 261 1
3713 9 1
3713 66 1
3713 132 1
3713 133 1
3713 165 1
3713 1025 1
3713 1027 1
3713 1058 1
3713 2153 1
3713 2337 1
3713 3097 1
3713 3345 1
3714 4 1
3714 17 1
3714 34 1
3714 517 1
3715 42 1
3715 53 1
3715 162 1
3715 265 1
3715 388 1
3717 99 1
3717 129 1
3717 2074 1
3717 2177 1
3717 2561 1
3718 97 1
3719 7 1
3719 1028 1
3721 1 1
3721 81 1
3721 521 1
3721 785 1
3721 2113 1
3722 1125 1
3723 35 1
3723 786 1
3725 1537 1
3725 2051 1
3726 641 1
3729 1 1
3729 5 1
3729 181 1
3729 2627 1
3730 68 1
3730 2689 1
3731 3 1
3731 577 1
3735 1409 1
3737 1665 1
3745 513 1
3745 2121 1
3746 134 1
3747 34 1
3747 2561 1
3749 163 1
3751 133 1
3753 2070 1
3754 33 1
3757 1025 1
3757 3329 1
3761 1153 1
3761 2121 1
3766 2193 1
3773 17 1
3777 13 1
3777 69 1
3777 501 1
3777 521 1
3778 611 1
3779 1 1
3781 833 1
3783 5 1
3783 182 1
3784 9 1
3784 273 1
3785 17 1
3786 289 1
3793 19 1
3794 1089 1
3801 594 1
3812 23 1
3818 1033 1
3822 2066 1
3822 2451 1
3825 520 1
3841 17 1
3841 24 1
3841 73 1
3841 109 1
3841 129 1
3841 199 1
3841 263 1
3841 526 1
3841 769 1
3841 836 1
3841 905 1
3841 1089 1
3841 1170 1
3841 2054 1
3841 2635 1
3842 8 1
3842 129 1
3842 147 1
3842 771 1
3843 65 1
3844 1 1
3844 79 1
3844 309 1
3844 577 1
3844 2055 1
3845 1 1
3845 11 1
3845 18 1
3845 69 1
3845 100 1
3845 545 1
3845 1037 1
3845 2098 1
3845 2179 1
3846 1159 1
3847 73 1
3848 1170 1
3849 3 1
3849 1540 1
3851 2 1
3851 121 1
3852 97 1
3853 257 1
3853 558 1
3853 1029 1
3856 2069 1
3857 321 1
3857 1808 1
3857 1897 1
3857 2177 1
3858 23 1
3858 3121 1
3859 1123 1
3865 897 1
3866 143 1
3867 69 1
3873 7 1
3873 129 1
3873 515 1
3873 1025 1
3873 1059 1
3873 1537 1
3873 3075 1
3874 65 1
3874 3377 1
3875 74 1
3875 2313 1
3876 49 1
3877 1 1
3877 258 1
3880 1090 1
3881 513 1
3886 1057 1
3889 521 1
3905 1051 1
3905 1666 1
3905 2078 1
3905 2081 1
3905 2569 1
3906 2154 1
3907 33 1
3908 25 1
3908 85 1
3911 2101 1
3922 65 1
3929 279 1
3929 451 1
3937 1 1
3937 77 1
3937 2313 1
3939 643 1
3943 9 1
3943 203 1
3943 3281 1
3945 1313 1
3951 1943 1
3954 770 1
3958 73 1
3969 1 1
3969 5 1
3969 135 1
3969 657 1
3969 1039 1
3970 21 1
3971 137 1
3972 1042 1
3973 205 1
3973 297 1
3977 449 1
3977 2065 1
3978 1121 1
3985 1121 1
3992 81 1
4001 66 1
4002 533 1
4015 9 1
4017 102 1
4033 129 1
4038 2 1
4042 3585 1
4051 517 1
4052 851 1
4057 529 1
